Ca4 P2 O1
1.0
   4.3191173647219481    0.0000000013570334   -1.2325618807177738
  -0.3517410368053094    4.3047713918276918   -1.2325618785740657
  -0.0090435849506064   -0.0098134802057295    8.1520672504987601
Ca P O
4 2 1
direct
   0.8267732876935320    0.8267722818713104    0.6535448715710638 Ca
   0.1732284345828182    0.1732282055262174    0.3464562609457061 Ca
   0.0000001071036834    0.4999998385828992    0.0000001070087327 Ca
   0.5000003054268121    0.0000000002106924    0.0000001615634395 Ca
   0.6363074935619106    0.6363067395887430    0.2726149520480485 P
   0.3636942287144393    0.3636937478087848    0.7273861804687214 P
   0.0000000000000000    0.0000000000000000    0.0000000000000000 O
