Nb2 V1 Mo1
1.0
   0.0000000000000000    3.2033763602834555    3.2033763602834555
   3.2033763602834555   -0.0000000000000000    3.2033763602834555
   3.2033763602834555    3.2033763602834555   -0.0000000000000000
Nb V Mo
2 1 1
direct
   0.0000000000000000    0.0000000000000000    0.0000000000000000 Nb
   0.5000005681062940    0.5000005681062940    0.5000005681062940 Nb
   0.7500008521594411    0.7500008521594410    0.7500008521594410 V
   0.2500002840531470    0.2500002840531470    0.2500002840531470 Mo
