Na1 Sr2 Be1
1.0
   3.9349652046682304    0.0000000000000000   -0.0000000000000000
   0.0000000000000000    3.9349652046682304    0.0000000000000000
   0.0000000000000000    0.0000000000000000    8.8518241779136382
Na Sr Be
1 2 1
direct
   0.5000006093232748    0.5000006093232748    0.6868207575612957 Na
   0.0000000000000000    0.0000000000000000    0.9658144344128635 Sr
   0.5000006093232748    0.5000006093232748    0.3249896986467066 Sr
   0.0000000000000000    0.0000000000000000    0.5223739294207566 Be
