Nb2 V1 Ru1
1.0
   0.0000000000000000    3.1660525253901644    3.1660525253901644
   3.1660525253901644   -0.0000000000000000    3.1660525253901644
   3.1660525253901644    3.1660525253901644    0.0000000000000000
Nb V Ru
2 1 1
direct
   0.0000000000000000    0.0000000000000000    0.0000000000000000 Nb
   0.4999996011768371    0.4999996011768371    0.4999996011768371 Nb
   0.7499994017652555    0.7499994017652556    0.7499994017652556 V
   0.2499998005884185    0.2499998005884185    0.2499998005884185 Ru
