Sr2 H4 Se4 O12
1.0
   5.9324239005815338   -0.0065588074262255   -0.0175068351215921
  -2.0534241515786507    6.9971950375980994    0.1114537244560822
  -1.9309552611800673   -1.4748741531297573    7.2950125864667159
Sr H Se O
2 4 4 12
direct
   0.3318936705614267    0.7172587468191925    0.5514106167434967 Sr
   0.6681054409753764    0.2827421076596618    0.4485880691271414 Sr
   0.0664729524439915    0.9552691717330705    0.3034778252142518 H
   0.2474648214552460    0.9647126706885110    0.0561364156882450 H
   0.7525342900815569    0.0352881837903424    0.9438622701823930 H
   0.9335261590928116    0.0447316827457831    0.6965208606563865 H
   0.0768752688487652    0.3023234783559098    0.1382808173268428 Se
   0.3511668370424815    0.2379052550561843    0.7770015676625801 Se
   0.6488322744943216    0.7620955994226695    0.2229971182080583 Se
   0.9231238426880378    0.6976773761229448    0.8617178685437952 Se
   0.9719030036381253    0.5888851762628078    0.6783968266969438 O
   0.5488608124275579    0.5567824695409814    0.3056337878677111 O
   0.7764761881534108    0.8590804191995299    0.7838516886936203 O
   0.4307270174569306    0.0807103243209152    0.6479327480035180 O
   0.5692720940798714    0.9192905301579389    0.3520659378671198 O
   0.2378789856194502    0.8655927529290384    0.9508102148399177 O
   0.4511382991092450    0.4432183849378717    0.6943648980029270 O
   0.0280961078986770    0.4111156782160459    0.3216018591736952 O
   0.0168673815609831    0.1729725847662119    0.6645241348172648 O
   0.9831317299758200    0.8270282697126417    0.3354745510533737 O
   0.2235229233833911    0.1409204352793240    0.2161469971770171 O
   0.7621201259180916    0.1344091015504134    0.0491884710302017 O
