Nd2 Tl1 Ag1
1.0
   4.6797868666835276   -0.0000000000000000    2.7018762072298106
   1.5599289555611762    4.4121453705862246    2.7018762072298106
  -0.0000000000000000   -0.0000000000000000    5.4037524144596203
Nd Tl Ag
2 1 1
direct
   0.2500001357439148    0.2500002623108140    0.2500000402082798 Nd
   0.7500004072317444    0.7500007869324421    0.7500001206248392 Nd
   0.0000000000000000    0.0000000000000000    0.0000000000000000 Tl
   0.5000002714878297    0.5000005246216280    0.5000000804165595 Ag
