Yb1 Cu5
1.0
   2.4929069695650337   -4.3178418645900978   -0.0000000000000000
   2.4929069695650337    4.3178418645900978    0.0000000000000000
  -0.0000000000000000    0.0000000000000000    4.0858414635688449
Yb Cu
1 5
direct
   0.0000000000000000    0.0000000000000000    0.0000000000000000 Yb
   0.3333336797839321    0.6666675358390348    0.0000000000000000 Cu
   0.6666675358390349    0.3333336797839321    0.0000000000000000 Cu
   0.0000004118641939    0.5000001959472896    0.4999998208974996 Cu
   0.5000006078114835    0.5000006078114835    0.4999998208974996 Cu
   0.5000001959472896    0.0000004118641939    0.4999998208974996 Cu
