Be1 Cr2 Pt1
1.0
   3.3423396331560014    0.0000000000000000    0.0000000000000000
   0.0000000000000000    3.3423396331560014   -0.0000000000000003
   0.0000000000000000   -0.0000000000000002    4.2167590407568545
Be Cr Pt
1 2 1
direct
   0.0000000000000000    0.0000000000000000    0.5000001137417548 Be
   0.5000000548783246    0.0000000000000000    0.0000000000000000 Cr
   0.0000000000000000    0.5000000548783246    0.0000000000000000 Cr
   0.5000000548783246    0.5000000548783246    0.5000001137417548 Pt
