Sm1 In1 Cu4
1.0
   4.4604113039316067   -0.0000000000000000    2.5752196670213636
   1.4868037679772026    4.2053161065215603    2.5752196670213636
  -0.0000000000000000    0.0000000000000000    5.1504393340427264
Sm In Cu
1 1 4
direct
   0.2499996385724952    0.2500002314616988    0.2500001296334338 Sm
   0.0000000000000000    0.0000000000000000    0.0000000000000000 In
   0.6255559274658097    0.6255574110093772    0.6255571562119098 Cu
   0.6255559274658097    0.6255574110093772    0.1233287639148856 Cu
   0.6255565067237241    0.1233286186645215    0.6255570666068683 Cu
   0.1233277469260518    0.6255574110093772    0.6255570503332766 Cu
