Nb12 Si4 Te24
1.0
   6.4420613758227319   -0.0000000000000000    0.0000000000000000
   0.0000000000000000   11.6616805070555412    0.0000000000000000
   0.0000000000000000    0.0000000000000000   14.2387201195631654
Nb Si Te
12 4 24
direct
   0.1687919037157803    0.8351044815190064    0.2499999979007389 Nb
   0.6687917969314257    0.6648954532602640    0.2499999979007389 Nb
   0.3312079894998648    0.3351045032592496    0.7499999937022166 Nb
   0.8312078827155106    0.1648954750005069    0.7499999937022166 Nb
   0.6959318222439427    0.9678816102371880    0.2499999979007389 Nb
   0.1959319290282975    0.5321183245420823    0.2499999979007389 Nb
   0.8040678574029937    0.4678816319774313    0.7499999937022166 Nb
   0.3040679641873482    0.0321183462823255    0.7499999937022166 Nb
   0.9691401585100203    0.3120520841632076    0.2499999979007389 Nb
   0.4691402652943750    0.1879478940965494    0.2499999979007389 Nb
   0.5308595211369158    0.8120520624229643    0.7499999937022166 Nb
   0.0308596279212704    0.6879478723563061    0.7499999937022166 Nb
   0.9244999075505715    0.9252119792591730    0.7499999937022166 Si
   0.4245000143349261    0.5747879555200974    0.7499999937022166 Si
   0.5754997720963647    0.4252120009994165    0.2499999979007389 Si
   0.0754998788807194    0.0747879772603403    0.2499999979007389 Si
   0.1447914934543117    0.4976941474873830    0.8790379444100611 Te
   0.6447913866699571    0.0023058307723740    0.6209620429943722 Te
   0.6447913866699571    0.0023058307723740    0.8790379444100611 Te
   0.1447914934543117    0.4976941474873830    0.6209620429943722 Te
   0.8552082929769792    0.5023058090321312    0.1209620471928944 Te
   0.3552083997613336    0.9976941257471392    0.3790379486085832 Te
   0.7964204344863091    0.1563182956211065    0.1173340305795939 Te
   0.2964205412706642    0.3436816826386505    0.3826659652218840 Te
   0.7035792451606272    0.6563182738808629    0.8826659610233615 Te
   0.2035793519449813    0.8436816608984075    0.6173340263810718 Te
   0.2035793519449813    0.8436816608984075    0.8826659610233615 Te
   0.1510869848821446    0.1820808668996549    0.8841373896214970 Te
   0.2964205412706642    0.3436816826386505    0.1173340305795939 Te
   0.7964204344863091    0.1563182956211065    0.3826659652218840 Te
   0.8489128015491463    0.8179190896198589    0.1158626019814583 Te
   0.3489129083335008    0.6820808451594115    0.3841373938200195 Te
   0.6510868780977900    0.3179191113601019    0.8841373896214970 Te
   0.1510869848821446    0.1820808668996549    0.6158625977829363 Te
   0.8552082929769792    0.5023058090321312    0.3790379486085832 Te
   0.6510868780977900    0.3179191113601019    0.6158625977829363 Te
   0.3489129083335008    0.6820808451594115    0.1158626019814583 Te
   0.8489128015491463    0.8179190896198589    0.3841373938200195 Te
   0.7035792451606272    0.6563182738808629    0.6173340263810718 Te
   0.3552083997613336    0.9976941257471392    0.1209620471928944 Te
