Tb1 Fe10 Si2
1.0
   4.3568088727226142   -0.0000000000020616   -1.7544077130023787
   2.1612230991536148    5.8652674419983866   -0.9198711359032191
   0.0125371738554210    0.0112737945211761    6.3180793029193731
Tb Fe Si
1 10 2
direct
   0.0000000000000000    0.0000000000000000    0.0000000000000000 Tb
   0.6379472684115132    0.3620529245462084    0.6379468124449051 Fe
   0.3620530322805358    0.6379468646701020    0.3620531685032358 Fe
   0.0000000147056767    0.3552506991307607    0.3552508704267324 Fe
   0.0000000266895229    0.6447490895279850    0.6447494004152600 Fe
   0.5000001621903519    0.7861278818834082    0.7861281157154745 Fe
   0.5000001385016969    0.2138719073329016    0.2138718652326660 Fe
   0.5000006141719137   -0.0000003234691017    0.4999999976257903 Fe
   0.0000004845234890   -0.0000003237478840    0.5000001425727160 Fe
   0.4999996658225355    0.5000002183560390   -0.0000001520986456 Fe
  -0.0000004638258892    0.5000002180772568   -0.0000000071517200 Fe
   0.7366675472657360    0.7633323450858103    0.2366676780252776 Si
   0.2633327534263132    0.2366674441304998    0.7633323029228632 Si
