Tm3 Ga1 C1
1.0
   5.1810206262701950    0.0000000000000000    0.0000000000000000
   0.0000000000000000    5.1810206262701950    0.0000000000000000
  -0.0000000000000000   -0.0000000000000000    5.1810206262701950
Tm Ga C
3 1 1
direct
   0.0000000000000000    0.4999999395611174    0.4999999395611174 Tm
   0.4999999395611174    0.0000000000000000    0.4999999395611174 Tm
   0.4999999395611174    0.4999999395611174    0.0000000000000000 Tm
   0.4999999395611174    0.4999999395611174    0.4999999395611174 Ga
   0.0000000000000000    0.0000000000000000    0.0000000000000000 C
