Mg4 Sc4 B4 O16
1.0
   3.2236339046558133    0.0000000000000000    0.0000000000000000
   0.0000000000000000    9.5110249087448668    0.0000000000000000
   0.0000000000000000    0.0000000000000000    9.4850383443243675
Mg Sc B O
4 4 4 16
direct
   0.4999993943704638    0.4401301579570798    0.0994433041314228 Mg
   0.4999993943704638    0.5598693259318894    0.5994433914097012 Mg
   0.4999993943704638    0.8162407724194964    0.1212667835536196 Mg
   0.4999993943704638    0.1837587114694730    0.6212668708318980 Mg
   0.0000000000000000    0.0550811915553372    0.9003248497934855 Sc
   0.0000000000000000    0.9449182923336320    0.4003247625152068 Sc
   0.0000000000000000    0.6672402104339548    0.8922158521760135 Sc
   0.0000000000000000    0.3327592734550146    0.3922157648977346 Sc
   0.0000000000000000    0.6252200807043440    0.3269114995794976 B
   0.0000000000000000    0.3747794031846253    0.8269115868577761 B
   0.4999993943704638    0.8706206340465866    0.6720547060857438 B
   0.4999993943704638    0.1293788498423827    0.1720546188074653 B
   0.4999993943704638    0.9968391136420177    0.7490266623171721 O
   0.4999993943704638    0.0031603702469519    0.2490265750388939 O
   0.0000000000000000    0.6093806114068525    0.4703511256100979 O
   0.0000000000000000    0.3906188724821171    0.9703512128883757 O
   0.4999993943704638    0.8806207660301659    0.5260104733005375 O
   0.4999993943704638    0.1193787178588033    0.0260103860222590 O
   0.0000000000000000    0.7582090933334443    0.2638342786264810 O
   0.4999993943704638    0.6330342679621681    0.0126671225188535 O
   0.4999993943704638    0.7413053097723482    0.7349760220455058 O
   0.4999993943704638    0.2586941741166210    0.2349759347672278 O
   0.0000000000000000    0.8680652929150201    0.9877639621080740 O
   0.0000000000000000    0.1319341909739493    0.4877638748297961 O
   0.0000000000000000    0.4963425196776518    0.7431536673275051 O
   0.4999993943704638    0.3669652159268020    0.5126672097971320 O
   0.0000000000000000    0.2417903905555258    0.7638343659047597 O
   0.0000000000000000    0.5036569642113180    0.2431535800492267 O
