Na1 Ca4 Be1
1.0
  -0.0000000000000000    4.8495641206608262    4.8495641206608262
   4.8495641206608262   -0.0000000000000000    4.8495641206608262
   4.8495641206608262    4.8495641206608262    0.0000000000000000
Na Ca Be
1 4 1
direct
   0.2499997875757118    0.2499997875757118    0.2499997875757118 Na
   0.1228411940720667    0.6257187021781577    0.6257187021781578 Ca
   0.6257187021781577    0.6257187021781577    0.6257187021781578 Ca
   0.6257187021781577    0.1228411940720667    0.6257187021781578 Ca
   0.6257187021781577    0.6257187021781577    0.1228411940720666 Ca
   0.0000000000000000    0.0000000000000000    0.0000000000000000 Be
