Nd4 In4 O12
1.0
   5.6690103644581562   -0.0000000000000000    0.0000000000000000
   0.0000000000000000    5.9871845158503456    0.0000000000000000
   0.0000000000000000    0.0000000000000000    8.2248306072151696
Nd In O
4 4 12
direct
   0.9799225764345535    0.0637299589363977    0.2499999815432318 Nd
   0.4799226085793312    0.4362696639372307    0.7499999446296953 Nd
   0.5200773271311133    0.5637295818100261    0.2499999815432318 Nd
   0.0200773592758911    0.9362692868108592    0.7499999446296953 Nd
   0.4999999678552223    0.0000000000000000    0.0000000000000000 In
   0.4999999678552223    0.0000000000000000    0.4999999630864636 In
   0.0000000000000000    0.4999996228736284    0.0000000000000000 In
   0.0000000000000000    0.4999996228736284    0.4999999630864636 In
   0.8093090137706167    0.8056509562378620    0.0653534973494664 O
   0.3093090459153941    0.6943479123830232    0.5653534604359299 O
   0.3093090459153941    0.6943479123830232    0.9346464288234608 O
   0.8734609571833857    0.5539018589118588    0.7499999446296953 O
   0.1265389785270589    0.4460973868353979    0.2499999815432318 O
   0.1906909219398280    0.1943482895093947    0.5653534604359299 O
   0.6906908897950502    0.3056513333642337    0.0653534973494664 O
   0.1906909219398280    0.1943482895093947    0.9346464288234608 O
   0.8093090137706167    0.8056509562378620    0.4346464657369972 O
   0.6265389463822810    0.0539022360382306    0.7499999446296953 O
   0.6906908897950502    0.3056513333642337    0.4346464657369972 O
   0.3734609893281633    0.9460970097090264    0.2499999815432318 O
