Ge2 W1
1.0
   3.1634480940587562   -0.0000000004965299   -1.1034725473575637
  -0.3849128873522996    3.1399432706705461   -1.1034725465770809
  -0.1058549453750849   -0.1196231888166995    4.7827762829416880
Ge W
2 1
direct
   0.3383033845745579    0.3383021083156983    0.6766048024675029 Ge
   0.6616997894943403    0.6616979644970807    0.3233977888804964 Ge
   0.0000000000000000    0.0000000000000000    0.0000000000000000 W
