Y1 V1 F1
1.0
   4.7292060740184780   -0.0000000000000000   -0.0000000000000000
  -2.3646030370092390    4.0956125998329753    0.0000000000000000
   0.0000000000000000    0.0000000000000000    3.0197709564899315
Y V F
1 1 1
direct
   0.6666675739434433    0.3333332287142806    0.0000000000000000 Y
   0.3333339335544485    0.6666664574285612    0.0000000000000000 V
   0.0000000000000000    0.0000000000000000    0.0000000000000000 F
