Sc4 Zn2 S8
1.0
  -5.2554992219436336   -5.2554992219436336    0.0000000000000000
  -5.2554992219436336   -0.0000000000000000   -5.2554992219436336
   0.0000000000000000   -5.2554992219436336   -5.2554992219436336
Sc Zn S
4 2 8
direct
  -0.0000000000000000    0.0000000000000001    0.5000000740230692 Sc
   0.0000000000000001    0.5000000740230692   -0.0000000000000002 Sc
   0.5000000740230692   -0.0000000000000000    0.0000000000000000 Sc
   0.0000000000000000    0.0000000000000000    0.0000000000000000 Sc
   0.3750000555173021    0.3750000555173019    0.3750000555173018 Zn
   0.6250000925288368    0.6250000925288365    0.6250000925288363 Zn
   0.2450216785092335    0.2450216785092334    0.7649341865413690 S
   0.2450216785092336    0.7649341865413690    0.2450216785092331 S
   0.7649341865413691    0.2450216785092333    0.2450216785092333 S
   0.2450216785092335    0.2450216785092333    0.2450216785092333 S
   0.7549784695369054    0.7549784695369050    0.2350659615047691 S
   0.7549784695369054    0.2350659615047692    0.7549784695369052 S
   0.2350659615047695    0.7549784695369051    0.7549784695369050 S
   0.7549784695369055    0.7549784695369051    0.7549784695369051 S
