Tm1 Ga1 Cu2
1.0
   3.8914244803751576   -0.0000000000000000    2.2467149712756975
   1.2971414934583860    3.6688701847314813    2.2467149712756975
  -0.0000000000000000   -0.0000000000000000    4.4934299425513942
Tm Ga Cu
1 1 2
direct
   0.0000000000000000    0.0000000000000000    0.0000000000000000 Tm
   0.4999992408279883    0.4999999748244729    0.4999992922230730 Ga
   0.7499988612419825    0.7499999622367094    0.7499989383346095 Cu
   0.2499996204139942    0.2499999874122364    0.2499996461115365 Cu
