Ca6 In4 Ga8
1.0
   4.6511025093018166    0.0000000055942476    0.0000000000000003
  -2.3255520533509864    4.0279724675311108    0.0000000000000003
   0.0000000000000000   -0.0000000000000001   22.4646736270437266
Ca In Ga
6 4 8
direct
   0.0000000000000000    0.0000000000000000    0.2574457597475245 Ca
   0.0000000000000000    0.0000000000000000    0.5876144441968878 Ca
   0.0000000000000000    0.0000000000000000    0.9171634528703327 Ca
   0.0000000000000000    0.0000000000000000    0.0780693916037330 Ca
   0.0000000000000000    0.0000000000000000    0.4183781001596777 Ca
   0.0000000000000000    0.0000000000000000    0.7481148719507796 Ca
   0.3333332433840179    0.6666662578045127    0.1485799106169423 In
   0.6666663515913517    0.3333331282078355    0.8445014036217782 In
   0.6666663515913517    0.3333331282078355    0.1868539559622768 In
   0.6666663515913517    0.3333331282078355    0.5147515705179491 In
   0.6666663515913517    0.3333331282078355    0.6526722352653717 Ga
   0.3333332433840179    0.6666662578045127    0.4816920797957966 Ga
   0.3333332433840179    0.6666662578045127    0.8115240975800543 Ga
   0.3333332433840179    0.6666662578045127    0.0118047022478093 Ga
   0.3333332433840179    0.6666662578045127    0.3526829005388760 Ga
   0.3333332433840179    0.6666662578045127    0.6823354628296527 Ga
   0.6666663515913517    0.3333331282078355    0.3233780447128491 Ga
   0.6666663515913517    0.3333331282078355    0.9824381626824307 Ga
