Ta4 Be1 Te1
1.0
   0.0000000000000000    3.8908297359008310    3.8908297359008310
   3.8908297359008310    0.0000000000000000    3.8908297359008310
   3.8908297359008310    3.8908297359008310   -0.0000000000000000
Ta Be Te
4 1 1
direct
   0.1192988567815409    0.6269007596577317    0.6269007596577317 Ta
   0.6269007596577317    0.6269007596577317    0.6269007596577317 Ta
   0.6269007596577317    0.1192988567815409    0.6269007596577317 Ta
   0.6269007596577317    0.6269007596577317    0.1192988567815408 Ta
   0.0000000000000000    0.0000000000000000    0.0000000000000000 Be
   0.2500000169693348    0.2500000169693347    0.2500000169693347 Te
