Mg1 Ni1 H3
1.0
   3.3440542779322455    0.0000000000000000   -0.0000000000000000
   0.0000000000000000    3.3440542779322455    0.0000000000000000
   0.0000000000000000   -0.0000000000000000    3.3440542779322455
Mg Ni H
1 1 3
direct
   0.0000000000000000    0.0000000000000000    0.0000000000000000 Mg
   0.4999993603674029    0.4999993603674029    0.4999993603674029 Ni
   0.4999993603674029    0.4999993603674029    0.0000000000000000 H
   0.4999993603674029    0.0000000000000000    0.4999993603674029 H
   0.0000000000000000    0.4999993603674029    0.4999993603674029 H
