Yb2 Ce1 Pm1
1.0
  -0.0000000000000000    4.0505442062210095    4.0505442062210095
   4.0505442062210095   -0.0000000000000000    4.0505442062210095
   4.0505442062210095    4.0505442062210095    0.0000000000000000
Yb Ce Pm
2 1 1
direct
   0.0000000000000000    0.0000000000000000    0.0000000000000000 Yb
   0.4999994807832238    0.4999994807832237    0.4999994807832237 Yb
   0.2499997403916119    0.2499997403916119    0.2499997403916119 Ce
   0.7499992211748355    0.7499992211748356    0.7499992211748356 Pm
