Ho4 Cu2 O8
1.0
   5.4673212514966778   -0.0000000000000000    0.0000000000000000
  -0.0000000000000000    2.7354515962032631    5.8636805133266190
   0.0000000000000000   -5.4709031924065261    0.0000000000000000
Ho Cu O
4 2 8
direct
   0.0000000000000000    0.3076434911154874    0.6538214537954466 Ho
   0.0000000000000000    0.6923564213410972    0.3461782106705521 Ho
   0.4999998855475451    0.6923564213410972    0.8461779189082586 Ho
   0.4999998855475451    0.3076434911154874    0.1538217455577401 Ho
   0.0000000000000000    0.0000000000000000    0.0000000000000000 Cu
   0.4999998855475451    0.0000000000000000    0.4999997082377065 Cu
   0.2029188240777046    0.0000000000000000    0.2977964137067068 O
   0.2499999427737725    0.4999999562282922    0.9904824365936027 O
   0.2499999427737725    0.4999999562282922    0.4904827283558962 O
   0.2970810614698405    0.0000000000000000    0.7977961219444135 O
   0.7029187096252494    0.0000000000000000    0.2022032945309996 O
   0.7499998283213176    0.4999999562282922    0.5095169361101025 O
   0.7499998283213176    0.4999999562282922    0.0095172278723959 O
   0.7970809470173857    0.0000000000000000    0.7022030027687060 O
