Ga1 Hg1 O2
1.0
   2.9614515154603334   -0.0035889099044342    6.3488209259725501
   1.4050467985859056    2.6069237527170039    6.3488209259725492
  -0.0060195737824612   -0.0035889092448179    7.0055467427992806
Ga Hg O
1 1 2
direct
   0.5000007527530897    0.4999988636128702    0.5000004479666965 Ga
   0.0000000000000000    0.0000000000000000    0.0000000000000000 Hg
   0.1172657266872652    0.1172652836251309    0.1172656552055405 O
   0.8827357788189142    0.8827324436006092    0.8827352407278526 O
