Rb2 Te2 Pt1
1.0
   0.0000000000000000    0.0000000000000000    4.0392381008260108
  -5.3482556853138199    4.0375672791924320    2.0196190504130054
  -5.3482556853138199   -4.0375672791924320    2.0196190504130054
Rb Te Pt
2 2 1
direct
   0.2038978573638696    0.2961023777267517    0.2961023777267517 Rb
   0.7961022762521859    0.7038984290196779    0.7038984290196779 Rb
   0.5000000668080277    0.2188974006416982    0.7811034061047317 Te
   0.5000000668080277    0.7811034061047317    0.2188974006416982 Te
   0.0000000000000000    0.0000000000000000    0.0000000000000000 Pt
