Sn1 Hg1
1.0
   0.0000000000000000    4.8880533229213565   -0.1739589140667916
   3.6866203106614228    0.0000000000000000    0.0000000000000000
   0.0000000000000000   -0.1265906317322573   -3.1149760617378472
Sn Hg
1 1
direct
   0.0000000000000000    0.0000000000000000    0.0000000000000000 Sn
   0.4999996650962813    0.4999999578663659    0.0000001930114645 Hg
