In4 Fe2 S8
1.0
   6.5199887827369585   -0.0000000004181644    3.7643166882611094
   2.1733299262532855    6.1471036793381479    3.7643166882611090
   0.0000000016156631    0.0000000011424462    7.5286343709294536
In Fe S
4 2 8
direct
   0.5000001987507050    0.4999997007598883    0.0000004901304353 In
   0.5000001986577796    0.4999997006669628    0.5000001999363552 In
   0.0000001053205639    0.4999997006329496    0.5000000266790942 In
   0.5000000932442902   -0.0000000000589124    0.4999998830631810 In
   0.8750003476511142    0.8749994761671848    0.8750003498886219 Fe
   0.1250000496644449    0.1249999251667407    0.1250000499840888 Fe
   0.7491697419893653    0.7491689958303747    0.7491697439051079 S
   0.2508306552339028    0.2508304054112598    0.7475081450324367 S
   0.2508307600392462    0.7475078855487393    0.2508309707353339 S
   0.7475085253739887    0.2508304055373315    0.2508308280736853 S
   0.7491696372763129    0.2524915157851862    0.7491694291373767 S
   0.2524918719415704    0.7491689957965942    0.7491695717990251 S
   0.2508306553261936    0.2508304055035505    0.2508306559676026 S
   0.7491697420816561    0.7491689959226655    0.2524922548402739 S
