Sr2 Li2 Ta4 O12 F2
1.0
   7.4405538680494638   -0.0363159597573399   -0.0132734260356190
   3.6888267393141745    6.4618657030442650   -0.0132734281888977
   3.6989559208295257    2.1355935516877640    6.0403691455205601
Sr Li Ta O F
2 2 4 12 2
direct
   0.6250002239037671    0.1249991806875546    0.6250005125419217 Sr
   0.1250003820342639    0.6249998260415057    0.6250005144857816 Sr
   0.6249997979203247    0.6249997151107453    0.1250007258226113 Li
   0.6250001835719798    0.6249994190180935    0.6250007967501430 Li
   0.6249998382521119    0.1249994767802064    0.1250004416143899 Ta
   0.1249999963826088    0.6250001221341576    0.1250004435582499 Ta
   0.1250000367143959    0.1249998838036187    0.1250001593500286 Ta
   0.1250004223660512    0.1249995877109669    0.6250002302775602 Ta
   0.8132551971626013    0.8132550565588766    0.1867455063374193 O
   0.8094216445906277    0.1894107460819778    0.8060781804018562 O
   0.8094211733334390    0.1894111079001679    0.1950899393623776 O
   0.1894122733081165    0.8094211137005476    0.8060781828122981 O
   0.1967529023850463    0.1967518347512378    0.8032479600502832 O
   0.4367443986780480    0.4367443736626139    0.0632559453078034 O
   0.1894118020509274    0.8094214755187378    0.1950899417728198 O
   0.4405785031707849    0.0605878456602448    0.0549109438664023 O
   0.0605884907604114    0.4405785383824640    0.4439228461592651 O
   0.0532479423470560    0.0532473406706960    0.4467525005048378 O
   0.0605881907142901    0.4405787687495774    0.0549109453436801 O
   0.4405788032169059    0.0605876152931314    0.4439228446819872 O
   0.7241459606734627    0.7241450043319327    0.7758552223783793 F
   0.5258544064704970    0.5258538337042541    0.4741463711219068 F
