Tl1 As1 Rh1
1.0
  -0.0000000000000000    3.1639368924061140    3.1639368924061140
   3.1639368924061140    0.0000000000000000    3.1639368924061140
   3.1639368924061140    3.1639368924061140    0.0000000000000000
Tl As Rh
1 1 1
direct
   0.0000000000000000    0.0000000000000000    0.0000000000000000 Tl
   0.5000004910960605    0.5000004910960604    0.5000004910960604 As
   0.2500002455480302    0.2500002455480302    0.2500002455480302 Rh
