Ir2 Pb2
1.0
   4.2022873015768125    0.0000000000000000    0.0000000000000000
  -2.1011436507884063    3.6392873704400790   -0.0000000000000000
   0.0000000000000000   -0.0000000000000000    5.6722390833628298
Ir Pb
2 2
direct
   0.0000000000000000    0.0000000000000000    0.0000000000000000 Ir
   0.0000000000000000    0.0000000000000000    0.5000000808002939 Ir
   0.3333340340683527    0.6666674816989244    0.2500000404001470 Pb
   0.6666678380998819    0.3333332408491057    0.7500001212004408 Pb
