Zr2 Te4 Br10
1.0
   7.8975363285076821    0.0502337268400710   -3.7768326329413062
  -2.9986424535591025    7.5779994461517450   -3.1968938034511232
  -0.1175278544381655   -0.0529837756581723    9.2391137012404947
Zr Te Br
2 4 10
direct
   0.8152477336168724    0.8152468805266135    0.0000006599297970 Zr
   0.1847528955779203    0.1847527022512724    0.0000001495570552 Zr
   0.8330084376210037    0.3330079943299552    0.5000002523730567 Te
   0.1669921046633008    0.6669920854164405    0.5000002929400447 Te
   0.7984558921902345    0.5681260918760804    0.3665821777998166 Te
   0.2015446500940697    0.4318739878703148    0.6334183675132852 Te
   0.4103539019998235    0.1493361612693277    0.8989082477921955 Br
   0.2504278404235004    0.5114454735863408    0.1010920229270803 Br
   0.5896466402844811    0.8506639184770683    0.1010922975209063 Br
   0.7495727018608040    0.4885546061600555    0.8989085223860214 Br
   0.4114059396289995    0.2521723259402459    0.3405746829877948 Br
   0.9115980319202798    0.0708311179622284    0.6594255440896499 Br
   0.0846154430250646    0.8342046804988260    0.9188196723891462 Br
   0.9153850992592397    0.1657953992475701    0.0811808729239555 Br
   0.0884025103640243    0.9291689617841676    0.3405750012234517 Br
   0.5885946026553043    0.7478277538061507    0.6594258623253072 Br
