Tb2 Ag2 As4
1.0
   3.9995194129830547   -0.0000000000000000   -0.0000000000000000
  -0.0000000000000000    3.9995194129830547   -0.0000000000000000
   0.0000000000000000   -0.0000000000000000   10.3586207354791107
Tb Ag As
2 2 4
direct
   0.0000000000000000    0.5000000733859352    0.2262270527617219 Tb
   0.5000000733859352    0.0000000000000000    0.7737728762366334 Tb
   0.0000000000000000    0.0000000000000000    0.4999999644991776 Ag
   0.5000000733859352    0.5000000733859352    0.4999999644991776 Ag
   0.0000000000000000    0.0000000000000000    0.0000000000000000 As
   0.5000000733859352    0.5000000733859352    0.0000000000000000 As
   0.0000000000000000    0.5000000733859352    0.6884709028774584 As
   0.5000000733859352    0.0000000000000000    0.3115290261208968 As
