Ca4 Nb8 O24
1.0
   5.2746792608679733    0.0000000000000000    0.0000000000000000
  -0.0000000000000000    5.8319411846348830    0.0000000000000000
   0.0000000000000000    0.0000000000000000   15.1464902105002039
Ca Nb O
4 8 24
direct
   0.7500001050962518    0.2217828666988435    0.0000000000000000 Ca
   0.2500000350320840    0.7782169301724102    0.0000000000000000 Ca
   0.7500001050962518    0.7217827651344750    0.4999999930511888 Ca
   0.2500000350320840    0.2782170317367861    0.4999999930511888 Ca
   0.2987105834497326    0.8129317969121912    0.3351825560647044 Nb
   0.7012895566786056    0.1870679999590646    0.6648174300376753 Nb
   0.2012894866144341    0.8129317969121912    0.6648174300376753 Nb
   0.7012895566786056    0.6870678983946941    0.8351825491158908 Nb
   0.2987105834497326    0.3129318984765649    0.1648174369864832 Nb
   0.7987106535138980    0.1870679999590646    0.3351825560647044 Nb
   0.7987106535138980    0.6870678983946941    0.1648174369864832 Nb
   0.2012894866144341    0.3129318984765649    0.8351825491158908 Nb
   0.0930040140568974    0.0949247271464179    0.9123608686331224 O
   0.0071385396492039    0.9295950510310562    0.4015217946421952 O
   0.5071386097133704    0.5704046442758292    0.0984781984089922 O
   0.4928615304149676    0.9295950510310562    0.5984781914601845 O
   0.9928616004791332    0.5704046442758292    0.9015217876933818 O
   0.5930040841210670    0.4050751712892116    0.5876391105204438 O
   0.8762274679501316    0.3628705619545698    0.7574367841514528 O
   0.4069960560072710    0.5949246255820499    0.4123608755819315 O
   0.3762273978859681    0.1371293364810611    0.7425631950021134 O
   0.6237727422423720    0.3628705619545698    0.2425632019509270 O
   0.1237726721781986    0.1371293364810611    0.2574367911002619 O
   0.1237726721781986    0.6371292349166963    0.2425632019509270 O
   0.6237727422423720    0.8628704603901891    0.2574367911002619 O
   0.3762273978859681    0.6371292349166963    0.7574367841514528 O
   0.4069960560072710    0.0949247271464179    0.0876391174692554 O
   0.8762274679501316    0.8628704603901891    0.7425631950021134 O
   0.4928615304149676    0.4295951525954396    0.9015217876933818 O
   0.5071386097133704    0.0704047458401924    0.4015217946421952 O
   0.0071385396492039    0.4295951525954396    0.0984781984089922 O
   0.5930040841210670    0.9050750697248353    0.9123608686331224 O
   0.0930040140568974    0.5949246255820499    0.5876391105204438 O
   0.9069961260714366    0.9050750697248353    0.0876391174692554 O
   0.9928616004791332    0.0704047458401924    0.5984781914601845 O
   0.9069961260714366    0.4050751712892116    0.4123608755819315 O
