Be1 P1 Pd2
1.0
   3.2644760747802448    0.0000000000000000    0.0000000000000000
   0.0000000000000000    3.2644760747802448    0.0000000000000000
   0.0000000000000000    0.0000000000000000    5.0043951212690461
Be P Pd
1 1 2
direct
   0.0000000000000000    0.0000000000000000    0.4672505389024805 Be
   0.5000006012021018    0.5000006012021018    0.7769102858295192 P
   0.0000000000000000    0.0000000000000000    0.9533400183641226 Pd
   0.5000006012021018    0.5000006012021018    0.3025015941269769 Pd
