Sr1 P2 Rh2
1.0
   3.7830049626934268    0.0000000001627593   -1.2052877460405433
  -0.3840125077388407    3.7634646587131204   -1.2052877470314793
   0.0029073710119537    0.0032191023831869    6.5485755499323499
Sr P Rh
1 2 2
direct
   0.0000000000000000    0.0000000000000000    0.0000000000000000 Sr
   0.6402294858962770    0.6402290544638852    0.2804581218880604 P
   0.3597704588307673    0.3597699462956086    0.7195416753422731 P
   0.7499995101170018    0.2499998098627176    0.4999998704606823 Rh
   0.2500004346100422    0.7499991908967762    0.4999999267696510 Rh
