Li1 Hg2 Au1
1.0
 -10.7441855083991875    3.7826120243470829   -9.3222888518286950
  -6.2078985827751785    1.2959378082061084   -2.2139023628807988
  -5.9490031819163240    4.4815811384602018   -4.6717684339516570
Li Hg Au
1 2 1
direct
  -0.0000000000969258   -0.0000000009070116    0.0000000012917577 Li
   0.6806801185390640   -0.1394592322049939    0.1391634204370763 Hg
   0.3193203205711050    0.1394602740886917   -0.1391645455206761 Hg
   0.5000002193591564    0.0000005189358372   -0.0000005605328109 Au
