Te1 Br1 O2
1.0
   4.0413673559544332   -0.0000000000000000   -0.0000000000000000
  -0.0000000000000000    4.0413673559544332   -0.0000000000000000
   0.0000000000000000    0.0000000000000000    4.5854294782347695
Te Br O
1 1 2
direct
   0.4999999361397343    0.4999999361397343    0.4892651772236534 Te
   0.0000000000000000    0.0000000000000000    0.0133967917072583 Br
   0.0000000000000000    0.0000000000000000    0.6167619107478035 O
   0.4999999361397343    0.4999999361397343    0.8905757748524415 O
