Cd1 Ir1 Ru1
1.0
   0.0000000000000000    3.0336745637560787    3.0336745637560787
   3.0336745637560787    0.0000000000000000    3.0336745637560787
   3.0336745637560787    3.0336745637560787   -0.0000000000000000
Cd Ir Ru
1 1 1
direct
   0.0000000000000000    0.0000000000000000    0.0000000000000000 Cd
   0.4999992478171303    0.4999992478171303    0.4999992478171302 Ir
   0.7499988717256953    0.7499988717256952    0.7499988717256953 Ru
