Li8 Nb1 S6
1.0
   6.6973611785692020   -0.0000000789569282   -0.0000000020831938
  -3.3486795837774417    1.9333619816378007    6.1338895131940125
   3.3486795486592649   -5.8000838900603702    0.0000000007625018
Li Nb S
8 1 6
direct
   0.1092933479446178    0.3602596136884350    0.4759104763855996 Li
   0.5240892054107307    0.6397404658017567    0.2249444060515507 Li
   0.2249445170431317    0.6397404656182494    0.8907063858601830 Li
   0.3367976128914763    0.0103916099469361    0.3367973097286568 Li
   0.6632024142264422    0.9896084696317194    0.6632023741508892 Li
   0.7750555100747867    0.3602596139604059    0.1092932980193631 Li
   0.4759108217071872    0.3602596137768987    0.7750552778279954 Li
   0.8907066791733009    0.6397404658902207    0.5240892074939461 Li
   0.0000000000000000    0.0000000000000000    0.0000000000000000 Nb
   0.2399349545836426    0.7654625982272459    0.6111182536069244 S
   0.3888815353260650    0.2345374812632318    0.0855907783052581 S
   0.0855909977968681    0.2345374810770249    0.7600646682457463 S
   0.9144090293210501    0.7654625985016310    0.2399350156337999 S
   0.6111184917918530    0.7654625983154243    0.9144089055742878 S
   0.7600650725342764    0.2345374813514101    0.3888814302726213 S
