Rb2 Sb2 O4
1.0
   5.3080774139955684    0.0277100958312825   -2.0812668385480868
  -2.5977181855886382    5.2768669919973377   -0.5242020442550893
  -0.0499244142469873    0.0669933402746198    5.9043430245620812
Rb Sb O
2 2 4
direct
   0.2500002675187019    0.6383330620102174    0.3616670745103940 Rb
   0.7500006661382903    0.3616668567775850    0.6383325459145782 Rb
   0.7500003499598059    0.9060906781554767    0.0939097896480295 Sb
   0.2500005836971863    0.0939092406323255    0.9060898307769427 Sb
   0.2098883990079261    0.1251353150621857    0.2279570069281137 O
   0.2901123564161698    0.7720427548094420    0.8748644537894825 O
   0.7098885772408222    0.2279571639783597    0.1251351666354897 O
   0.7901125346490664    0.8748646037256163    0.7720426134968583 O
