Zn1 P1 Pd5
1.0
   3.9258078222032893   -0.0000000000000000   -0.0000000000000000
   0.0000000000000000    3.9258078222032893   -0.0000000000000000
  -0.0000000000000000    0.0000000000000000    6.8770452533692028
Zn P Pd
1 1 5
direct
   0.5000002773692459    0.5000002773692459    0.0000000000000000 Zn
   0.0000000000000000    0.0000000000000000    0.5000003451068462 P
   0.0000000000000000    0.5000002773692459    0.2916179784630410 Pd
   0.0000000000000000    0.5000002773692459    0.7083827117506514 Pd
   0.5000002773692459    0.0000000000000000    0.2916179784630410 Pd
   0.5000002773692459    0.0000000000000000    0.7083827117506514 Pd
   0.0000000000000000    0.0000000000000000    0.0000000000000000 Pd
