Ba1 H2 Ru1
1.0
   4.3574565730769050    0.0000000000000000    0.0000000000000000
  -0.0000000000000000    4.3574565730769050   -0.0000000000000000
   0.0000000000000000    0.0000000000000000    3.1157523949529047
Ba H Ru
1 2 1
direct
   0.5000000423411862    0.5000000423411862    0.4999997738976208 Ba
   0.5000000423411862    0.0000000000000000    0.0000000000000000 H
   0.0000000000000000    0.5000000423411862    0.0000000000000000 H
   0.0000000000000000    0.0000000000000000    0.4999997738976208 Ru
