La2 Yb1 Mg1
1.0
   0.0000000000000000    4.0334258033451880    4.0334258033451880
   4.0334258033451880   -0.0000000000000000    4.0334258033451880
   4.0334258033451880    4.0334258033451880   -0.0000000000000000
Yb La Mg
1 2 1
direct
   0.7500007803518058    0.7500007803518058    0.7500007803518058 Yb
   0.0000000000000000    0.0000000000000000    0.0000000000000000 La
   0.5000005202345371    0.5000005202345372    0.5000005202345372 La
   0.2500002601172686    0.2500002601172686    0.2500002601172686 Mg
