Co5 O8
1.0
  -5.6721335882045549   -0.0000000042572619    0.0000000060206777
  -2.8360672867352950    4.9122122012902274    0.0000000030103394
  -2.8360672867352941   -1.6374040699349179   -4.6312782511067887
Co O
5 8
direct
   0.4956499784367278    0.4978257756480760    0.5021746718977282 Co
   0.4956496335532349    0.0065249208886802    0.5021746715785150 Co
   0.2500004322981112    0.8749997277054837    0.1250000480970604 Co
   0.0043502150545417    0.4978257750096522    0.5021746712593043 Co
   0.0043501228531799    0.4978262439118956    0.9934759316052278 Co
   0.9777499526196217    0.7388749709172757    0.2611250489853120 O
   0.9777496328685633    0.2833749694417966    0.2611250486884146 O
   0.5222499503838557    0.7388754050582689    0.7166254258994595 O
   0.5222500358680430    0.7388749703234824    0.2611250483915185 O
   0.4694478375185545    0.2652770396334513    0.7347238216194564 O
   0.4694479198862683    0.2652766207468591    0.2958284823402753 O
   0.0305522502938377    0.7041720160164431    0.7347238213335026 O
   0.0305519421990236    0.2652770390615434    0.7347238210475485 O
