Li1 Bi1 Cl1
1.0
   5.3169880495044364    0.0000000000082899    0.0000000000000000
  -2.6584940246873070    4.6046467224482628    0.0000000000000000
  -0.0000000000000000   -0.0000000000000000    3.2489773919772320
Li Bi Cl
1 1 1
direct
   0.6666665433945144    0.3333331991575356    0.0000000000000000 Li
   0.0000000000000000    0.0000000000000000    0.0000000000000000 Bi
   0.3333331022095637    0.6666663983419393    0.0000000000000000 Cl
