Mg4 Tc2 O8
1.0
   6.0688482188412891   -0.0296625917662552   -0.0058923439804844
   3.0087359580634465    5.2112831483506072    0.0000000036551707
   3.0210504103502211    1.7299840636935175    4.9711415424792467
Mg Tc O
4 2 8
direct
   0.0116355312798507    0.9883648280961473    0.0116345784656467 Mg
   0.2383657498593069    0.2616343398272277    0.2383654624415091 Mg
   0.6250003148218076    0.1249997161973983    0.6250001010505157 Mg
   0.6250007961594888    0.6249994167992382    0.6250001012534113 Mg
   0.1250008510774373    0.6249992466860851    0.6249998655597309 Tc
   0.6250005856516303    0.6249997540748407    0.1250002561472583 Tc
   0.3782089453181890    0.3917292874490302    0.3782085117970864 O
   0.3749370690842820    0.3917878798099430    0.8414874284455519 O
   0.3782093882673853    0.8518518139714405    0.3782085119826238 O
   0.8414879548201398    0.3917883532554909    0.3749366594984721 O
   0.4085136374988370    0.8582104803429864    0.8750635430083505 O
   0.8750645232346955    0.8582109537885336    0.4085127740612710 O
   0.8717922040515917    0.3981470196270361    0.8717916905241989 O
   0.8717926470007886    0.8582695461494466    0.8717916907097361 O
