V10 Si2 B4
1.0
  -2.8940147122305890    2.8940147122305890    5.3937582553014725
   2.8940147122305890   -2.8940147122305890    5.3937582553014725
   2.8940147122305890    2.8940147122305890   -5.3937582553014725
V Si B
10 2 4
direct
   0.0000000000000000    0.0000000000000000    0.0000000000000000 V
   0.5000001617331038    0.5000001617331038    0.0000000000000000 V
   0.0335160932114638    0.5335152790776294    0.8402242335471086 V
   0.6932903931297903    0.1932912072636248    0.1597741381852227 V
   0.1932902313966867    0.0335160932114639    0.4999991858661657 V
   0.5335162549445677    0.6932903931297903    0.4999991858661657 V
   0.4664830926547018    0.3067089544694790    0.4999991858661657 V
   0.8067091162025830    0.9664832543878057    0.4999991858661657 V
   0.3067089544694789    0.8067081403356448    0.8402242335471087 V
   0.9664832543878057    0.4664840685216400    0.1597741381852227 V
   0.7500002425996558    0.7500002425996557    0.0000000000000000 Si
   0.2500000808665519    0.2500000808665519    0.0000000000000000 Si
   0.3858125716674655    0.8858117575336312    0.2716240057348819 B
   0.6141867759318040    0.1141875900656384    0.7283743659974495 B
   0.1141875900656384    0.3858115958005273    0.4999991858661657 B
   0.8858117575336311    0.6141877517987422    0.4999991858661657 B
