Sc2 H2 O4
1.0
   1.8320877889168403    5.5075709365688512    1.0706645029670296
  -1.9938289598978798    5.4726896536058325    0.6569069033457575
   0.5814635130068087    0.4601834326163959    3.7768514071754091
Sc H O
2 2 4
direct
   0.4442173378299756    0.8006711307977259    0.3309117252115816 Sc
   0.5803654964030401    0.1645139744153724    0.6947698411992147 Sc
   0.0606687342407014    0.4675589927636644    0.4489597329451805 H
  -0.0182371539482949    0.0464342438659028    0.0278542883263893 H
   0.3484806646937877    0.2486166998241237    0.2797406911475359 O
   0.6438295345115326    0.7557253086970348    0.7333771148938006 O
  -0.1185761814157385    0.2156436418540487    0.2468050176102609 O
   0.1375004278445932    0.7620718484985511    0.7396754973414209 O
