Li1 Ho2 Ru1
1.0
   0.0000000000000000    3.4314021068803693    3.4314021068803693
   3.4314021068803693   -0.0000000000000000    3.4314021068803693
   3.4314021068803693    3.4314021068803693   -0.0000000000000000
Li Ho Ru
1 2 1
direct
   0.2499998465000382    0.2499998465000382    0.2499998465000382 Li
   0.0000000000000000    0.0000000000000000    0.0000000000000000 Ho
   0.5000006929994599    0.5000006929994599    0.5000006929994599 Ho
   0.7500005394994982    0.7500005394994981    0.7500005394994981 Ru
