K6 Rh2
1.0
   3.8428340842875102   -6.6559844281864766    0.0000000000000000
   3.8428340842875102    6.6559844281864766   -0.0000000000000000
   0.0000000000000000   -0.0000000000000000    5.5159851318398019
K Rh
6 2
direct
   0.1866822880702638    0.8133166490976129    0.7500006619162418 K
   0.6266340748093920    0.8133165616487196    0.7500006619162418 K
   0.1866823755191568    0.3733648623584842    0.7500006619162418 K
   0.8133166490976129    0.1866822880702637    0.2500002206387473 K
   0.3733648623584842    0.1866823755191567    0.2500002206387473 K
   0.8133165616487197    0.6266340748093921    0.2500002206387473 K
   0.3333325794664959    0.6666663577013806    0.2500002206387473 Rh
   0.6666663577013806    0.3333325794664959    0.7500006619162418 Rh
