Y1 Be1 Nb1
1.0
  -1.5151790497020676    1.5151790497020676    6.0651103293181734
   1.5151790497020676   -1.5151790497020676    6.0651103293181734
   1.5151790497020676    1.5151790497020676   -6.0651103293181734
Y Be Nb
1 1 1
direct
   0.6552318462230350    0.6552318462230350   -0.0000000000000000 Y
   0.9848398656229165    0.9848398656229164   -0.0000000000000000 Be
   0.3599281795597588    0.3599281795597588   -0.0000000000000000 Nb
