Na1 Mo1 F1
1.0
   4.3658814965413395   -0.0817172959596738    0.0000000000000000
   0.0815416001093583    4.3419086955099804    0.0000000000000000
   0.0000000000000000    0.0000000000000000    2.5276774219426850
Na Mo F
1 1 1
direct
  -0.0902358910622272    0.4159379361593082    0.0000000000000000 Na
   0.4097923152819236   -0.0840964369609399    0.0000000000000000 Mo
  -0.0902062982815153   -0.0840516178847621    0.0000000000000000 F
