Mn4 Cu3 O12
1.0
   5.8299100603750880    0.0000126872446540   -2.0611971497252508
  -2.9149397890638071    5.0488069027035998   -2.0611696004071187
  -0.0000125655477929    0.0000115254229555    6.1835533702502126
Mn Cu O
4 3 12
direct
   0.0000001223245944    0.0000000906313242    0.5000001556520562 Mn
   0.0000000209416520    0.5000006259114466    0.0000003363203917 Mn
   0.5000000622059987    0.5000000035285415    0.4999996530349923 Mn
   0.4999999327455800    0.0000001363997033   -0.0000000608323736 Mn
   0.4999998838664578    0.5000006306146153    0.0000000326288726 Cu
   0.0000003159922029    0.5000003188518926    0.5000000755494919 Cu
   0.5000000024614875   -0.0000003462271233    0.4999997245257369 Cu
   0.1837123281596044    0.6899384833651702    0.8736498752767325 O
   0.4937396492230755    0.1836934116652451    0.3100413216602383 O
   0.6899603935517710    0.8736545847111358    0.1836972029690479 O
   0.8162879395241563    0.3100615694393005    0.1263495557918958 O
   0.6899343803120832    0.5062185210687878    0.8162828097919976 O
   0.8736499824868909    0.1837085783425070    0.6899368298262907 O
   0.1837041023077148    0.3100526689776945    0.4937505631470413 O
   0.8162958996348513    0.6899469629188058    0.5062484046140786 O
   0.1263501715033814    0.8162915560768591    0.3100631334830281 O
   0.5062601297486822    0.8163066435753091    0.6899581401273153 O
   0.3100660555013327    0.4937825636195128    0.1837170429777121 O
   0.3100398920630053    0.1263462292023073    0.8163028043964859 O
