Sr2 Hf7 O16
1.0
   6.3868346702386205    0.0000000008845199    0.0000000000000000
  -3.1934173353746500    1.8437197035065493    8.9070159416683428
   3.1934173358853282   -5.5311610984834187   -0.0000000014184428
Sr Hf O
2 7 16
direct
   0.3337390260769278    0.0012162948002792    0.3337390319746247 Sr
   0.6662605205666287    0.9987841609921122    0.6662608679127722 Sr
   0.0000000000000000    0.0000000000000000    0.0000000000000000 Hf
   0.2523030548873286    0.6540250681241936    0.5146176063423740 Hf
   0.1128972248516745    0.3459753877098999    0.7476967559543976 Hf
   0.4853819766160528    0.3459753876089006    0.1128970154317877 Hf
   0.5146175700275039    0.6540250681834915    0.8871028844556088 Hf
   0.8871023217918816    0.6540250680824919    0.2523031439329991 Hf
   0.7476964917562275    0.3459753876681985    0.4853822935450229 Hf
   0.8506796409108081    0.5901089826942636    0.5905579920044743 O
   0.8511267930823629    0.4098914730566610    0.1493199120041611 O
   0.9624298359422238    0.8721374961606010    0.2304382497396448 O
   0.6792680526239768    0.8721374962772527    0.9624305235173986 O
   0.4094419912613855    0.4098914731683261    0.8511273075276420 O
   0.4299232409109682    0.2897713392663509    0.4299233455754167 O
   0.5700763057325881    0.7102291165260406    0.5700765543119799 O
   0.1488727535611933    0.5901089827357303    0.8506799878832362 O
   0.3207314940195797    0.1278629595151388    0.0375693763699981 O
   0.0375697107013327    0.1278629596317909    0.7695616501477517 O
   0.7695613627347441    0.1278629595602366    0.3207316886768843 O
   0.1493199057327485    0.4098914730981276    0.4094419078829223 O
   0.2304381839088121    0.8721374962321549    0.6792682112105125 O
   0.2360484086293643    0.7081452074444072    0.2360486510140010 O
   0.5905575553821707    0.5901089826240659    0.1488725923597546 O
   0.7639511380141916    0.2918552483479849    0.7639512488733954 O
