Lu4 Ni4 Sn4
1.0
   4.4149176121526823   -0.0000000000000000    0.0000000000000000
   0.0000000000000000    6.9433209803760709    0.0000000000000000
   0.0000000000000000    0.0000000000000000    7.6029274597708669
Lu Ni Sn
4 4 4
direct
   0.2500001352147156    0.4873678583577220    0.2011182092784348 Lu
   0.2500001352147156    0.9873677877592236    0.2988819577775614 Lu
   0.7500004056441469    0.0126320710437796    0.7011183763344240 Lu
   0.7500004056441469    0.5126320004452812    0.7988821248335433 Lu
   0.7500004056441469    0.7922233899532264    0.0851512843582522 Ni
   0.7500004056441469    0.2922234605517249    0.4148488826977370 Ni
   0.2500001352147156    0.7077763982512784    0.5851514514142413 Ni
   0.2500001352147156    0.2077764688497767    0.9148490497537261 Ni
   0.7500004056441469    0.1900593824226825    0.0867558136313874 Sn
   0.7500004056441469    0.6900593118241839    0.4132443534246016 Sn
   0.2500001352147156    0.3099405469788192    0.5867559806873766 Sn
   0.2500001352147156    0.8099404763803209    0.9132445204805906 Sn
