V4 Ge2 C2
1.0
   1.5115246523940788   -2.6180369967702899    0.0000000000000000
   1.5115246523940788    2.6180369967702899   -0.0000000000000000
  -0.0000000000000000    0.0000000000000000   12.1311502253460706
V Ge C
4 2 2
direct
   0.6666656522148385    0.3333312698372951    0.4117043005591821 V
   0.3333312698372951    0.6666656522148385    0.5882956808649973 V
   0.3333312698372951    0.6666656522148385    0.9117042912712718 V
   0.6666656522148385    0.3333312698372951    0.0882956901529074 V
   0.6666656522148385    0.3333312698372951    0.7499999860681346 Ge
   0.3333312698372951    0.6666656522148385    0.2499999953560448 Ge
   0.0000000000000000    0.0000000000000000    0.4999999907120897 C
   0.0000000000000000    0.0000000000000000    0.0000000000000000 C
