Ba2 Lu2 Co8 O14
1.0
   6.2409824861581527   -0.0000000002873435    0.0000000000000000
  -3.1204902435767825    5.4048496175123573   -0.0000000000000000
   0.0000000000000000    0.0000000000000000   10.1604113572742438
Ba Lu Co O
2 2 8 14
direct
   0.3333329168305547    0.6666670471960685    0.9863847887125401 Ba
   0.6666667592482977    0.3333330236245857    0.4863848555048280 Ba
   0.3333329168305547    0.6666670471960685    0.3648835022297821 Lu
   0.6666667592482977    0.3333330236245857    0.8648834354374942 Lu
   0.0000000000000000    0.0000000000000000    0.4728645462050726 Co
   0.0000000000000000    0.0000000000000000    0.9728644794127844 Co
   0.1627631172990288    0.8372369394255240    0.6829469500305888 Co
   0.3255271221077532    0.1627631313679251    0.1829470168228768 Co
   0.1627630792215220    0.3255272627099667    0.6829469500305888 Co
   0.6744725539710992    0.8372369394527290    0.6829469500305888 Co
   0.8372365587798236    0.1627631313951302    0.1829470168228768 Co
   0.8372365968573301    0.6744728081106877    0.1829470168228768 Co
   0.0000000000000000    0.0000000000000000    0.2683732001701444 O
   0.5017318236864728    0.0034640468425565    0.2454573344862019 O
   0.4982678523923795    0.9965360239780978    0.7454572676939138 O
   0.0034640825259433    0.5017320587918666    0.7454572676939138 O
   0.5017318605059862    0.4982680120024814    0.2454573344862019 O
   0.0000000000000000    0.0000000000000000    0.7683731333778564 O
   0.8277417689132088    0.1722579264217868    0.9950270195943829 O
   0.3445167039605729    0.1722579263960974    0.9950270195943829 O
   0.8277418048711256    0.6554832180558587    0.9950270195943829 O
   0.1722578712077270    0.3445168527647954    0.4950270863866710 O
   0.6554829721182793    0.8277421444245570    0.4950270863866710 O
   0.4982678155728663    0.5017320588181727    0.7454572676939138 O
   0.1722579071656434    0.8277421443988675    0.4950270863866710 O
   0.9965355935529090    0.4982680120287876    0.2454573344862019 O
