Nd2 Co2 Sb4
1.0
   4.3844790539673140   -0.0000000000000000   -0.0000000000000000
  -0.0000000000000000    4.3844790539673140    0.0000000000000000
  -0.0000000000000000   -0.0000000000000000    9.8312219305352055
Nd Co Sb
2 2 4
direct
   0.7500001618264122    0.7500001618264122    0.7410906485232849 Nd
   0.2500000539421374    0.2500000539421374    0.2589091551089371 Nd
   0.2500000539421374    0.7500001618264122    0.4999999018161110 Co
   0.7500001618264122    0.2500000539421374    0.4999999018161110 Co
   0.2500000539421374    0.7500001618264122    0.0000000000000000 Sb
   0.7500001618264122    0.2500000539421374    0.0000000000000000 Sb
   0.7500001618264122    0.7500001618264122    0.3661227249669798 Sb
   0.2500000539421374    0.2500000539421374    0.6338770786652423 Sb
