Mg1 Zn1 Rh2
1.0
   0.0000000000000000    3.0610000459136475    3.0610000459136475
   3.0610000459136475    0.0000000000000000    3.0610000459136475
   3.0610000459136475    3.0610000459136475   -0.0000000000000000
Mg Zn Rh
1 1 2
direct
   0.2499989962501280    0.2499989962501280    0.2499989962501280 Mg
   0.7499989887503491    0.7499989887503491    0.7499989887503491 Zn
   0.0000000000000000    0.0000000000000000    0.0000000000000000 Rh
   0.4999999925002210    0.4999999925002210    0.4999999925002210 Rh
