Cd2 Cu2 F8
1.0
   4.9004959290991570    0.0000000011133929   -2.2480938610380803
  -1.0313090830347516    4.7907468634267669   -2.2480938664009136
  -0.0136993206052800   -0.0169614078417502    6.4353461595241548
Cd Cu F
2 2 8
direct
   0.7500005533267879    0.7500006435204623    0.5000016170757361 Cd
   0.2500001596401458    0.2500003132581908    0.5000007637844801 Cd
   0.5000004169111479    0.0000000014633339    0.0000004461398149 Cu
  -0.0000000232245056    0.5000003287989375    0.0000004071514411 Cu
   0.9462030761721624    0.4462026988661306    0.2556044649762800 F
   0.6905997535399208    0.1905995898333431    0.7443981883354721 F
   0.0537976367947715    0.5537982579125224    0.7443979158839363 F
   0.1905993429830713    0.0537979295139565    0.7443976307977465 F
   0.3094009594270131    0.8094013669453097    0.2556041925247441 F
   0.4462026656153131    0.3094010385467439    0.2556039074385544 F
   0.8094013699838625    0.9462030272646966    0.2556047500624696 F
   0.5537980473516205    0.6905999182319092    0.7443984734216619 F
