Cu2 Ge1 Pd1 Se4
1.0
   0.0000000000000000    4.0512604881294800    5.4532469224216022
   4.0512604881294800   -0.0000000000000000    5.4532469224216022
   4.0512604881294800    4.0512604881294800    0.0000000000000000
Cu Ge Pd Se
2 1 1 4
direct
   0.2500001410892649    0.2500001410892649    0.2499997986665863 Cu
   0.7500004232677945    0.7500004232677946    0.7499993959997590 Cu
   0.5000002821785298    0.5000002821785298    0.4999995973331725 Ge
   0.0000000000000000    0.0000000000000000    0.0000000000000000 Pd
   0.3833773601506186    0.8773919206670833    0.1226079588446189 Se
   0.6166232042064407    0.1226086436899761    0.3833766753052613 Se
   0.8773919206670832    0.3833773601506185    0.6166225193610835 Se
   0.1226086436899761    0.6166232042064407    0.8773912358217260 Se
