Dy1 Ag2
1.0
   3.4896191187785419    0.0000000045305414   -1.2992841882430008
  -0.4837607378617695    3.4559251305157388   -1.2992841906562616
  -0.0188930459998141   -0.0217214840902090    5.2851119757506826
Dy Ag
1 2
direct
   0.0000000000000000    0.0000000000000000    0.0000000000000000 Dy
   0.6689999113622408    0.6690002421661879    0.3380006846683098 Ag
   0.3310016931177162    0.3310016079340337    0.6620013761451672 Ag
