Mn2 Co8 N8
1.0
   4.7953389339949180    0.0006773079060291    0.4603983290498315
   1.2321792409178893    4.3675090731078630    1.5264235537588569
  -0.0088605278890276    0.0153696791799573    7.6687196461403353
Mn Co N
2 8 8
direct
   0.6976085736767296    0.8453863855810800    0.7773139594473431 Mn
   0.3023916841367718    0.1546145178394936    0.2226856458781206 Mn
   0.7317884140627212    0.0605965839387103    0.4154911313009558 Co
   0.2168480321053115    0.5718447880609033    0.4249202056206524 Co
   0.7831522257081897    0.4281561153596703    0.5750793997048114 Co
   0.2682118437507801    0.9394043194818633    0.5845084740245079 Co
   0.7404801325125658    0.2443408159238934    0.9501826657586686 Co
   0.2421052385813182    0.3574415570217026    0.7834773524894615 Co
   0.7578950192321835    0.6425593463988714    0.2165222528360021 Co
   0.2595201253009353    0.7556600874966808    0.0498169395667954 Co
   0.5092208579972111    0.7896425459365679    0.3927265977723955 N
   0.9775810978084035    0.7082523899544920    0.6175289439762290 N
   0.0224191600050976    0.2917485134660815    0.3824706613492343 N
   0.8688906729448439    0.8239271700187377    0.9823745571190345 N
   0.1311095848686573    0.1760737334018362    0.0176250482064295 N
   0.4291610873915669    0.6319392345434599    0.8368346357494176 N
   0.5708391704219342    0.3680616688771139    0.1631649695760453 N
   0.4907793998162896    0.2103583574840062    0.6072730075530679 N
