Ca6 Mn2 Zn2 O12
1.0
   6.3621751964000675    0.0102801031400095   -0.2067727919731870
  -0.2139357033934375    6.3585848232843922   -0.2067727938813176
   0.0099239562902318    0.0102801016022298    6.3655263028092151
Ca Mn Zn O
6 2 2 12
direct
   0.2500002055794756    0.6134778840681145    0.8865234845678142 Ca
   0.8865227427183799    0.2500007846248589    0.6134792192071268 Ca
   0.3865223765470446    0.1134782627756424    0.7500006432337470 Ca
   0.7500002234231211    0.3865213238227013    0.1134779294856822 Ca
   0.1134776862842244    0.7499984232659572    0.3865221948463698 Ca
   0.6134780524555594    0.8865209451151737    0.2500007708197497 Ca
   0.0000000000000000    0.0000000000000000    0.0000000000000000 Mn
   0.4999997145002215    0.5000006039446564    0.5000007070269086 Mn
   0.2499998572498382    0.2499998019726926    0.2500013535138160 Zn
   0.7499985717500101    0.7499994059181280    0.7500020605398706 Zn
   0.7130507195315048    0.0475284598688504    0.9178517276589472 O
   0.2130493137322086    0.4178505359025592    0.5475280922068683 O
   0.9524729579679161    0.0821490506289945    0.2869498458833896 O
   0.0821484017866901    0.2869499783581730    0.9524731603323889 O
   0.2869497094717158    0.9524707480219813    0.0821486863939917 O
   0.9178520272159070    0.7130492295326426    0.0475282537211075 O
   0.0475264710345530    0.9178501572618550    0.7130505681690867 O
   0.4524709027634502    0.7869495984798739    0.5821499781736461 O
   0.5821487656914508    0.4524721104856502    0.7869510996175199 O
   0.7869491152688862    0.5821486719882929    0.4524733218457032 O
   0.5475275262376372    0.2130496094109784    0.4178514358789254 O
   0.4178496633096367    0.5475270974052021    0.2130503144350520 O
