Cr4 Sb4 S12
1.0
   3.6576584443848730    0.0000000000000000    0.0000000000000000
  -0.0000000000000000    8.7930708049454864    0.0000000000000000
   0.0000000000000000    0.0000000000000000   12.7787327098348502
Cr Sb S
4 4 12
direct
   0.2500001063258879    0.6574741277064412    0.4557773813024474 Cr
   0.7500003189776637    0.3425257807503988    0.5442224066393688 Cr
   0.2500001063258879    0.1574741734780213    0.0442225126684607 Cr
   0.7500003189776637    0.8425257349788190    0.9557772752733553 Cr
   0.2500001063258879    0.0210531030572229    0.6622030363192390 Sb
   0.2500001063258879    0.5210530572856431    0.8377966455934851 Sb
   0.7500003189776637    0.4789468511711972    0.1622031423483310 Sb
   0.7500003189776637    0.9789468053996172    0.3377967516225771 Sb
   0.7500003189776637    0.3271403294957145    0.9869757624868023 S
   0.7500003189776637    0.5021778327506183    0.3948765762817584 S
   0.7500003189776637    0.7117531485717733    0.7889444745507002 S
   0.2500001063258879    0.2882467598850669    0.2110553133911159 S
   0.2500001063258879    0.4978220757062220    0.6051232116600574 S
   0.7500003189776637    0.0021778785221982    0.1051233176891495 S
   0.2500001063258879    0.9978220299346420    0.8948764702526667 S
   0.2500001063258879    0.1728596247327056    0.4869758685158944 S
   0.7500003189776637    0.8271402837241345    0.5130239194259220 S
   0.2500001063258879    0.6728595789611257    0.0130240254550137 S
   0.7500003189776637    0.2117531943433531    0.7110552073620240 S
   0.2500001063258879    0.7882467141134870    0.2889445805797921 S
