Rh1 Pb3
1.0
   4.6615377583737825   -0.0000000000000000   -0.0000000000000000
   0.0000000000000000    4.6615377583737825    0.0000000000000000
   0.0000000000000000    0.0000000000000000    4.6615377583737825
Rh Pb
1 3
direct
   0.0000000000000000    0.5000002404384919    0.0000000000000000 Rh
   0.0000000000000000    0.0000000000000000    0.5000002404384919 Pb
   0.5000002404384919    0.5000002404384919    0.5000002404384919 Pb
   0.5000002404384919    0.0000000000000000    0.0000000000000000 Pb
