C3 Se1
1.0
  -1.4907804150574335   -2.5821067578522165   -0.0000000000000000
  -1.4907804150574335    2.5821067578522165   -0.0000000000000000
  -0.0000000000000000    0.0000000000000000   -6.5290355739212584
Se C
1 3
direct
   0.0000000000000000    0.0000000000000000    0.0000000000000000 Se
   0.0000000000000000    0.0000000000000000    0.5000003389534864 C
   0.6666670700617301    0.3333336515217786    0.0000000000000000 C
   0.3333326515220596    0.6666660700620111    0.5000003389534864 C
