Ba1 Mn1 Bi1
1.0
   0.0000000000000000    3.9284896330821804    3.9284896330821804
   3.9284896330821804    0.0000000000000000    3.9284896330821804
   3.9284896330821804    3.9284896330821804    0.0000000000000000
Ba Mn Bi
1 1 1
direct
   0.7500000700494058    0.7500000700494058    0.7500000700494058 Ba
   0.5000000466996040    0.5000000466996039    0.5000000466996039 Mn
   0.0000000000000000    0.0000000000000000    0.0000000000000000 Bi
