Lu1 In3
1.0
   4.5981801765804580    0.0000000000000000    0.0000000000000000
   0.0000000000000000    4.5981801765804580    0.0000000000000000
  -0.0000000000000000   -0.0000000000000000    4.5981801765804580
Lu In
1 3
direct
   0.0000000000000000    0.0000000000000000    0.0000000000000000 Lu
   0.4999999807988758    0.0000000000000000    0.4999999807988758 In
   0.0000000000000000    0.4999999807988758    0.4999999807988758 In
   0.4999999807988758    0.4999999807988758    0.0000000000000000 In
