Ba4 Mg1 Ta1
1.0
   0.0000000000000000    4.9941701382775747    4.9941701382775747
   4.9941701382775747    0.0000000000000000    4.9941701382775747
   4.9941701382775747    4.9941701382775747   -0.0000000000000000
Ba Mg Ta
4 1 1
direct
   0.1229281286772503    0.6256902719823969    0.6256902719823969 Ba
   0.6256902719823970    0.6256902719823969    0.6256902719823969 Ba
   0.6256902719823970    0.1229281286772502    0.6256902719823969 Ba
   0.6256902719823970    0.6256902719823969    0.1229281286772502 Ba
   0.2499999930780505    0.2499999930780505    0.2499999930780505 Mg
   0.0000000000000000    0.0000000000000000    0.0000000000000000 Ta
