Zn5 Se1 S4
1.0
   3.8471155475775900    0.0006740248005828  -13.4633670574497355
  -0.0748312748825362    3.8463877561969895  -13.4633670574497391
  -0.0006609234018643   -0.0006740248018643   14.0022337547697955
Zn Se S
5 1 4
direct
   0.3044252813209495    0.3044246898216885    0.0000001696252040 Zn
   0.6955761984921278    0.6955748469854275    0.0000003875737712 Zn
   0.0976657318836078    0.0976655421187893    0.0000000544191648 Zn
   0.5000007399065388    0.4999997684035581    0.0000002785994876 Zn
   0.9023357479294696    0.9023339946883268    0.0000005027798107 Zn
   0.2500006716542270    0.7500006991642272    0.5000009738372531 Se
   0.6466132300112162    0.1466122463402711    0.5000005143604381 S
   0.0488366117764438    0.5488370301488260    0.5000008617490108 S
   0.4511647315320171    0.9511643681796282    0.5000010859254954 S
   0.8533889074070882    0.3533875219703639    0.5000006295754641 S
