Yb4 B16 Os4
1.0
   3.5597287559996920    0.0000000000000000    0.0000000000000000
   0.0000000000000000    5.9452026486294312    0.0000000000000000
   0.0000000000000000   -0.0000000000000000   11.5040309223042136
Yb B Os
4 16 4
direct
   0.0000000000000000    0.1291662840774918    0.1500229732220568 Yb
   0.0000000000000000    0.8708332704154954    0.8499769466056786 Yb
   0.0000000000000000    0.6291660613239957    0.3499769866918108 Yb
   0.0000000000000000    0.3708334931690051    0.6500229331359243 Yb
   0.5000001747324576    0.1136147908682426    0.5474893528731338 B
   0.5000001747324576    0.8863847636247517    0.4525105669546016 B
   0.5000001747324576    0.6136145681147394    0.9525105268684690 B
   0.5000001747324576    0.3863849863782545    0.0474893929592661 B
   0.5000001747324576    0.1357032716881479    0.9698338308517904 B
   0.5000001747324576    0.8642962828048459    0.0301660889759449 B
   0.5000001747324576    0.6357030489346452    0.5301660488898124 B
   0.5000001747324576    0.3642965055583492    0.4698338709379225 B
   0.5000001747324576    0.2131919350319578    0.8147989267246645 B
   0.5000001747324576    0.7868076194610363    0.1852009931030707 B
   0.5000001747324576    0.7131917122784548    0.6852009530169384 B
   0.5000001747324576    0.2868078422145390    0.3147989668107971 B
   0.5000001747324576    0.0255791545042778    0.6919582460195254 B
   0.5000001747324576    0.9744203999887162    0.3080416738082098 B
   0.5000001747324576    0.5255789317507749    0.8080416337220775 B
   0.5000001747324576    0.4744206227422192    0.1919582861056576 B
   0.0000000000000000    0.1366730426603537    0.4112160400559396 Os
   0.0000000000000000    0.8633265118326402    0.5887838797717957 Os
   0.0000000000000000    0.6366728199068509    0.0887839198579280 Os
   0.0000000000000000    0.3633267345861435    0.9112159999698072 Os
