K2 Al2 Te4
1.0
   6.1539822628824146   -0.0000000000000000    3.3293865606727007
   3.0769911314412073    6.0707100757347714    1.6646932803363503
   0.1883119585977866   -0.0000000000000000    7.0040802668259001
K Al Te
2 2 4
direct
   0.7499997087107810    0.0000000000000000    0.0000005067488879 K
   0.2499999029035937    0.0000000000000000    0.0000001689162959 K
   0.7499994649267191    0.4999999937622807    0.5000003708929552 Al
   0.2499996591195318    0.4999999937622807    0.5000000330603633 Al
   0.1664262755498889    0.4999999937622807    0.1671459846277843 Te
   0.3335730946112233    0.8328539433423510    0.4999999608553937 Te
   0.6664260294350272    0.1671460441822105    0.5000004430979250 Te
   0.8335728484963620    0.4999999937622807    0.8328544193255343 Te
