Ce1 Pb3
1.0
   4.8831917725395124    0.0000000000000000   -0.0000000000000000
   0.0000000000000000    4.8831917725395124   -0.0000000000000000
   0.0000000000000000    0.0000000000000000    4.8831917725395124
Ce Pb
1 3
direct
   0.0000000000000000    0.0000000000000000    0.0000000000000000 Ce
   0.0000000000000000    0.4999998185060515    0.4999998185060515 Pb
   0.4999998185060515    0.4999998185060515    0.0000000000000000 Pb
   0.4999998185060515    0.0000000000000000    0.4999998185060515 Pb
