Hf16 Fe8
1.0
   7.3096339316720513   -0.0000000002009640    4.2202191937710376
   2.4365443101745554    6.8915886168315001    4.2202191937710376
   0.0000000000000000   -0.0000000000000000    8.4404383875420752
Hf Fe
16 8
direct
   0.4999997310574552    0.0000000000145804    0.5000002777436779 Hf
   0.6871000526889692    0.0628995490768882    0.6871008655875589 Hf
   0.6870996428648858    0.6871006014911697    0.0629000211016680 Hf
   0.0628994613028185    0.0628995490586027    0.6871006380989850 Hf
   0.0628990514787348    0.6871006014728841    0.0628997936130941 Hf
   0.3128987528679697    0.9371006516561416    0.3129000133466451 Hf
   0.9370997540782040    0.3128995992601457    0.9371010853211100 Hf
   0.9370997540782040    0.3128995992601457    0.3129000389395258 Hf
   0.3128991626920533    0.3128995992418602    0.9371008578325362 Hf
   0.9370993442541203    0.9371006516744271    0.3129002408352192 Hf
   0.6871000526889692    0.0628995490768882    0.0628998192059748 Hf
   0.0628990514787348    0.6871006014728841    0.6871008399946782 Hf
  -0.0000003282789857    0.5000001003519345    0.5000002572432213 Hf
   0.4999994027784695    0.5000001003665149    0.0000003439473050 Hf
   0.4999994027784695    0.5000001003665149    0.5000004394671022 Hf
   0.3128987528679697    0.9371006516561416    0.9371010597282290 Hf
   0.2827440396938213    0.2827444341719112    0.2827446259296680 Fe
   0.7172547658631178    0.7172557665611186    0.3482336921702061 Fe
   0.7172550081477598    0.3482332021600935    0.7172561336455627 Fe
   0.3482324740183456    0.7172557665502368    0.7172561185151984 Fe
   0.2827437974091794    0.6517669985729362    0.2827447452886414 Fe
   0.6517663315385936    0.2827444341827932    0.2827447604190059 Fe
   0.2827440396938213    0.2827444341719112    0.6517671867639981 Fe
   0.7172547658631178    0.7172557665611186    0.7172562530045363 Fe
