K1 Bi2 F7
1.0
   3.7799664930579304    0.0473994756233017   -0.3185717415192020
   1.9038061373825084    4.0051252814801765   -0.2602721011151768
  -0.3730508706925738   -0.2404826146076005   10.2677179979870239
K Bi F
1 2 7
direct
   0.6300165308169792    0.5848061595764449    0.6797011739561778 K
   0.9395123384036284    0.1235678268779033    0.9808913984025769 Bi
   0.5104337067731007    0.1809384748439691    0.3489731543094882 Bi
   0.2957583420737968    0.3346178792059958    0.8805461734100317 F
  -0.0481820494865890   -0.0336052775235733    0.7700053374203849 F
   0.1115048179561255    0.9705706371943537    0.2437491745607469 F
   0.1805317769579413    0.0889231620568199    0.5096914685618725 F
   0.8306510601358937    0.6194698219081578    0.3659848448145421 F
   0.6402503133475496    0.7170472511695793    0.9877273627396623 F
   0.3861943563203739    0.3183392304889686    0.1374010149107658 F
