Zr10 Sn6 B2
1.0
   8.5591694170693060   -0.0000000006977550    0.0000000000000005
  -4.2795844374581424    7.4124583069829537    0.0000000000000005
   0.0000000000000000   -0.0000000000000000    5.8271809608970573
Zr Sn B
10 6 2
direct
   0.6666669229839413    0.3333334095299444   -0.0000000000000001 Zr
   0.0000004873557363    0.7703456565046233    0.2499999587752180 Zr
   0.2296546803851287    0.2296545719185913    0.2499999587752180 Zr
   0.0000001452899848    0.2296545718969376    0.7499998763256542 Zr
   0.2296545350951439    0.0000000000216538    0.7499998763256542 Zr
   0.7703455330579110    0.0000000000724789    0.2499999587752180 Zr
   0.6666669229839413    0.3333334095299444    0.4999999175504360 Zr
   0.3333337778148347    0.6666668189657491    0.4999999175504360 Zr
   0.3333337778148347    0.6666668189657491   -0.0000000000000001 Zr
   0.7703460204136474    0.7703456565771023    0.7499998763256541 Zr
   0.3982748742967882    0.3982746861904693    0.7499998763256542 Sn
   0.6017254458229717    0.0000000000566550    0.7499998763256542 Sn
   0.0000003806790156    0.6017255422485689    0.7499998763256542 Sn
   0.6017258265019874    0.6017255423052240    0.2499999587752180 Sn
   0.3982746223300828    0.0000000000374778    0.2499999587752181 Sn
   0.0000002519667056    0.3982746861529916    0.2499999587752181 Sn
   0.0000000000000000    0.0000000000000000    0.0000000000000000 B
   0.0000000000000000    0.0000000000000000    0.4999999175504362 B
