Ca2 Ni2 B2 N2
1.0
   3.5325985693080342    0.0000000000000000    0.0000000000000000
   0.0000000000000000    3.5325985693080342   -0.0000000000000000
   0.0000000000000000   -0.0000000000000000    7.6031019880550161
Ca Ni B N
2 2 2 2
direct
   0.0000000000000000    0.5000002024985202    0.3416599258691991 Ca
   0.5000002024985202    0.0000000000000000    0.6583398126513390 Ca
   0.0000000000000000    0.0000000000000000    0.0000000000000000 Ni
   0.5000002024985202    0.5000002024985202    0.0000000000000000 Ni
   0.0000000000000000    0.5000002024985202    0.8448001083494449 B
   0.5000002024985202    0.0000000000000000    0.1551996301710935 B
   0.0000000000000000    0.5000002024985202    0.6626355939943679 N
   0.5000002024985202    0.0000000000000000    0.3373641445261704 N
