Rb2 Na1 Mo1 Br6
1.0
   6.6384635148210496    0.0000000000000000    3.8327186518733720
   2.2128211716070165    6.2588027801599804    3.8327186518733720
  -0.0000000000000000   -0.0000000000000000    7.6654373037467440
Rb Na Mo Br
2 1 1 6
direct
   0.7499995815869550    0.7499996668500256    0.7500009033939242 Rb
   0.2499998605289850    0.2499998889500085    0.2500003011313081 Rb
   0.4999997210579700    0.4999997779000171    0.5000006022626161 Na
   0.0000000000000000    0.0000000000000000    0.0000000000000000 Mo
   0.7607370903241812    0.2392623938125486    0.2392630180544960 Br
   0.2392623666130162    0.2392623938125486    0.7607379715288273 Br
   0.2392623517917589    0.7607371619874856    0.7607381864707360 Br
   0.2392623517917589    0.7607371619874856    0.2392630032332387 Br
   0.7607370903241812    0.2392623938125486    0.7607382012919935 Br
   0.7607370755029238    0.7607371619874856    0.2392632329964050 Br
