Sr2 Ag1 Sb1
1.0
 -10.5134905915483330    0.0000127544588093   -6.0699456040434905
 -10.8923694227027799   -0.0126043081444997    6.7261798219085742
  -7.1293513462004867   10.6308153883077203    0.2084427778239247
Sr Ag Sb
2 1 1
direct
   0.7404530896116899   -0.0000000773719632   -0.0000000637689293 Sr
   0.2595473178602326   -0.0000002004302348   -0.0000001956623005 Sr
   0.0000000000000000    0.0000000000000000    0.0000000000000000 Ag
   0.5000002037359612   -0.0000001389010990   -0.0000001297156149 Sb
