Rb2 Ga1 Hg1 Br6
1.0
   6.7135209556175921   -0.0000000000000000    3.8760531309360107
   2.2378403185391975    6.3295682578069181    3.8760531309360107
  -0.0000000000000000   -0.0000000000000000    7.7521062618720196
Rb Ga Hg Br
2 1 1 6
direct
   0.7499997888460757    0.7500002064350614    0.7499997581924960 Rb
   0.2499999296153586    0.2500000688116871    0.2499999193974987 Rb
   0.0000000000000000    0.0000000000000000    0.0000000000000000 Ga
   0.4999998592307171    0.5000001376233743    0.4999998387949974 Hg
   0.7615815766218883    0.2384183474097734    0.2384180308553204 Br
   0.2384182146619754    0.2384183474097734    0.7615818936192602 Br
   0.2384181418395458    0.7615819278369751    0.7615816467346741 Br
   0.2384181418395458    0.7615819278369751    0.2384179580328909 Br
   0.7615815766218883    0.2384183474097734    0.7615817195571036 Br
   0.7615815037994587    0.7615819278369751    0.2384177839707343 Br
