P2 I2 Cl12
1.0
   9.3179809418153194    0.0000000000000000    0.0000000000000000
   0.0000000000000000    9.3179809418153194   -0.0000000000000000
   0.0000000000000000   -0.0000000000000000    5.5731937502960305
P I Cl
2 2 12
direct
   0.0000000000000000    0.0000000000000000    0.4999996635415707 P
   0.4999999494624788    0.4999999494624788    0.4999996635415707 P
   0.0000000000000000    0.4999999494624788    0.1678955336367899 I
   0.4999999494624788    0.0000000000000000    0.8321037934463515 I
   0.3033826772071757    0.8033826266696544    0.8361531152101150 Cl
   0.0859386061287966    0.1452401680212899    0.7135596345466872 Cl
   0.1966172722553033    0.3033826772071757    0.1638462118730261 Cl
   0.6966172217177820    0.1966172722553033    0.8361531152101150 Cl
   0.3547597814411888    0.4140613433336821    0.7135596345466872 Cl
   0.8033826266696544    0.6966172217177820    0.1638462118730261 Cl
   0.5859385555912753    0.3547597814411888    0.2864396925364544 Cl
   0.1452401680212899    0.9140612927961612    0.2864396925364544 Cl
   0.4140613433336821    0.6452401174837683    0.2864396925364544 Cl
   0.6452401174837683    0.5859385555912753    0.7135596345466872 Cl
   0.8547597309036681    0.0859386061287966    0.2864396925364544 Cl
   0.9140612927961612    0.8547597309036681    0.7135596345466872 Cl
