Ba4 Sb1 Ir1
1.0
  -0.0000000000000000    4.7709823770823094    4.7709823770823094
   4.7709823770823094    0.0000000000000000    4.7709823770823094
   4.7709823770823094    4.7709823770823094   -0.0000000000000000
Ba Sb Ir
4 1 1
direct
   0.1260920602131418    0.6246359811037889    0.6246359811037889 Ba
   0.6246359811037890    0.6246359811037889    0.6246359811037889 Ba
   0.6246359811037890    0.1260920602131417    0.6246359811037889 Ba
   0.6246359811037889    0.6246359811037889    0.1260920602131417 Ba
   0.0000000000000000    0.0000000000000000    0.0000000000000000 Sb
   0.2499998754406262    0.2499998754406262    0.2499998754406262 Ir
