Li2 Mg1 Br4
1.0
   3.8496500542116987    0.0000000000000000    0.0000000000000000
   0.0000000000000000    6.2997228573265369   -2.2537179969917829
   0.0000000000000000   -0.0016008558331025    6.6907214209216592
Li Mg Br
2 1 4
direct
   0.4999999929588796    0.4999997731606222   -0.0000002260946169 Li
   0.4999999929588796    0.0000000679050792    0.4999999166873203 Li
   0.0000000000000000    0.0000000000000000    0.0000000000000000 Mg
   0.4999999929588796    0.2422947853283906    0.2422947124110559 Br
   0.4999999929588796    0.7577058968026917    0.7577056687737296 Br
   0.0000000000000000    0.2440713071765238    0.7559284484325670 Br
   0.0000000000000000    0.7559283749548790    0.2440709327528397 Br
