V4 S10
1.0
   4.1689062498660006    0.0886188125325735   -0.0000421718226542
   0.1129224932250213    5.9091320729272088    0.0005633351758190
   0.0000996943458626   -0.0007510647866127   13.8753039675257845
V S
4 10
direct
   0.0384178326363182    0.0750318992249156    0.1452847791764633 V
   0.4165752523322075    0.9127056984604133    0.3454886713058056 V
   0.4987568413168323    0.9249817908158516    0.6452821861770502 V
   0.1205753446507683    0.0872879891604531    0.8454908794435742 V
   0.5367785015356165    0.9087726357204619    0.1796993556762081 S
  -0.0608961660563956    0.0825535008176353    0.3274165555026435 S
   0.0003841746346471    0.0912113056619084    0.6796970066650886 S
   0.5980258848011313    0.9174477068288663    0.8274168908627009 S
   0.1625002563378369    0.4206264938489748    0.8744157134865603 S
   0.4864933124888612    0.5849613266201003    0.6288405468361711 S
   0.3745902580348606    0.5793694731923495    0.3744254985002153 S
   0.5065192760403393    0.0577714566785086    0.4988495165480259 S
   0.0306090946942382    0.9422310262539723   -0.0011448233305048 S
   0.0506618233202168    0.4150481722778370    0.1288332705062329 S
