Ba3 Li1
1.0
   5.2592622555485633    0.0226196301466805   -5.3905697094386191
  -0.8552775873709864    5.1893015393591355   -5.3905697089107170
  -0.0191132116826166   -0.0226196410919724    7.5311163680431097
Ba Li
3 1
direct
   0.7499998603817364    0.2499999455984983    0.5000000636569658 Ba
   0.2499998148495574    0.7499997611226022    0.4999998989883495 Ba
   0.4999995362387974    0.4999998873705145   -0.0000004511813853 Ba
   0.0000000000000000    0.0000000000000000    0.0000000000000000 Li
