Hf2 Fe1 Os1
1.0
  -0.0000029778442724    3.2016459048578110    3.2016449122430592
   3.2016449122430544   -0.0000019852295180    3.2016439196283040
   3.2016439196283000    3.2016439196283022   -0.0000009926147636
Hf Fe Os
2 1 1
direct
   0.0000000000000000    0.0000000000000000    0.0000000000000000 Hf
   0.5000010137044685    0.4999997620382606    0.5000013237382294 Hf
   0.2499980068534050    0.2499993810222527    0.2500001618650489 Fe
   0.7500000205566654    0.7499981430611086    0.7500004856063767 Os
