K2 Pt1 S6
1.0
  -3.5721585052078964   -6.2623576160946861    0.0889824446828498
  -3.6372812105686196    6.2999549032776647    0.0000000000652564
   0.2824384098495929    0.1630663782831991   -4.8501908625125481
K Pt S
2 1 6
direct
   0.3923923088211285    0.6961953546668899    0.7320430049536710 K
   0.6076078211334940    0.3038041841824506    0.2679573236517966 K
   0.0000000000000000    0.0000000000000000    0.0000000000000000 Pt
   0.7004018088257594    0.8502002969813890    0.2684666974129439 S
   0.0910750614741210    0.7488828410306848    0.1873588110617376 S
   0.0910749697050550    0.3421935345117556    0.1873588093726559 S
   0.2995983211288631    0.1497992418679514    0.7315336311925240 S
   0.9089250684805014    0.2511166978186558    0.8126415175437300 S
   0.9089251602495676    0.6578060043375847    0.8126415192328118 S
