Eu1 Mn2 Sb2
1.0
   4.3177913404907624   -0.0000000218929736    0.0000000000000001
  -2.1588952081776469    3.7393171591309482    0.0000000000000001
   0.0000000000000001    0.0000000000000001    7.3088428164563979
Eu Mn Sb
1 2 2
direct
   0.0000000000000000    0.0000000000000000    0.0000000000000000 Eu
   0.6666665516730857    0.3333332571460745    0.3842961591014381 Mn
   0.3333324108758708    0.6666675084380899    0.6157034555494080 Mn
   0.6666665516730857    0.3333332571460745    0.7441594234590057 Sb
   0.3333324108758708    0.6666675084380899    0.2558401911918401 Sb
