K3 Bi1 Cl6
1.0
   6.8484674212528827   -0.0000000000000000    3.9539645091967346
   2.2828224737509610    6.4567970057374149    3.9539645091967346
  -0.0000000000000000   -0.0000000000000000    7.9079290183934674
K Bi Cl
3 1 6
direct
   0.7499998955639845    0.7500003478035528    0.7499991160951505 K
   0.2499999651879948    0.2500001159345177    0.2499997053650503 K
   0.4999999303759896    0.5000002318690353    0.4999994107301005 K
   0.0000000000000000    0.0000000000000000    0.0000000000000000 Bi
   0.7588384459513354    0.2411618272310814    0.2411610385271746 Cl
   0.2411616818139213    0.2411618272310814    0.7588380646449924 Cl
   0.2411614148006438    0.7588386365069890    0.7588377829330260 Cl
   0.2411614148006438    0.7588386365069890    0.2411611494645667 Cl
   0.7588384459513354    0.2411618272310814    0.7588376719956339 Cl
   0.7588381789380577    0.7588386365069890    0.2411607568152081 Cl
