Be2 V1 Hg1
1.0
   2.7910499897551588    0.0000000000000000    0.0000000000000000
   0.0000000000000000    2.7910499897551588    0.0000000000000000
   0.0000000000000000    0.0000000000000000    6.7574935260631239
Be V Hg
2 1 1
direct
   0.0000000000000000    0.0000000000000000    0.7284573212992073 Be
   0.0000000000000000    0.0000000000000000    0.2715421569003482 Be
   0.5000000018353024    0.5000000018353024    0.4999997390997778 V
   0.5000000018353024    0.5000000018353024    0.0000000000000000 Hg
