Ta1 Se1 I1
1.0
   6.8056290639506036    2.8945385744671133    0.0000000000000000
   2.3820234123059012    5.0051614681491250    0.0000000000000000
   0.0000000000000000    0.0000000000000000    3.4830803302588218
Ta Se I
1 1 1
direct
  -0.0473510568291791    0.4258297969186170    0.0000000000000000 Ta
   0.4440904176599414   -0.0657086646517097    0.0000000000000000 Se
  -0.0866212991550311   -0.0349202573767665    0.0000000000000000 I
