Be1 Tl1 Ga4
1.0
   0.0000000000000000    3.9589194743571872    3.9589194743571872
   3.9589194743571872    0.0000000000000000    3.9589194743571872
   3.9589194743571872    3.9589194743571872    0.0000000000000000
Be Tl Ga
1 1 4
direct
   0.0000000000000000    0.0000000000000000    0.0000000000000000 Be
   0.2500000331935782    0.2500000331935782    0.2500000331935782 Tl
   0.1225503461535775    0.6258169731317287    0.6258169731317287 Ga
   0.6258169731317286    0.6258169731317287    0.6258169731317287 Ga
   0.6258169731317287    0.1225503461535776    0.6258169731317287 Ga
   0.6258169731317287    0.6258169731317287    0.1225503461535776 Ga
