Ca4 Be1 Rh1
1.0
  -0.0000000000000000    4.2431191874554139    4.2431191874554139
   4.2431191874554139    0.0000000000000000    4.2431191874554139
   4.2431191874554139    4.2431191874554139   -0.0000000000000000
Ca Be Rh
4 1 1
direct
   0.1276387786633744    0.6241208681102701    0.6241208681102700 Ca
   0.6241208681102702    0.6241208681102701    0.6241208681102701 Ca
   0.6241208681102701    0.1276387786633743    0.6241208681102702 Ca
   0.6241208681102701    0.6241208681102701    0.1276387786633743 Ca
   0.0000000000000000    0.0000000000000000    0.0000000000000000 Be
   0.2500000478742495    0.2500000478742495    0.2500000478742495 Rh
