Mn4 Zn1 Cu3 O12
1.0
   5.8726614055637327   -0.0000000149548394   -2.0762991874319234
  -2.9363302283286661    5.0858736391834176   -2.0762991874319234
  -0.0000000000000000   -0.0000000000000000    6.2288975622957716
Mn Zn Cu O
4 1 3 12
direct
   0.0000000000000000    0.0000000000000000    0.5000001956770203 Mn
  -0.0000001594468443    0.4999996422263233   -0.0000002376325138 Mn
   0.4999997216181908    0.4999996436965560    0.4999998536639222 Mn
   0.4999998810650351    0.0000000014702327   -0.0000001043805842 Mn
   0.0000000000000000    0.0000000000000000    0.0000000000000000 Zn
   0.4999997216181908    0.4999996436965560   -0.0000003420130980 Cu
  -0.0000001594468443    0.4999996422263233    0.4999999580445065 Cu
   0.4999998810650351    0.0000000014702327    0.5000000912964361 Cu
   0.6993661859466882    0.5210842250901446    0.8217170053443442 O
   0.1782827843009574    0.3006332669263049    0.4789154114286904 O
   0.5210842099052108    0.8217164909718887    0.6993662928627293 O
   0.6993660722404915    0.8776498151163954    0.1782824292361379 O
   0.1223492678011655    0.8217164898023372    0.3006331831032823 O
   0.1782826571478743    0.6993660185716162    0.8776504149287275 O
   0.3006332572896934    0.4789150623029674    0.1782827019835004 O
   0.8217166589354242    0.6993660204668070    0.5210842958991542 O
   0.8776501754352164    0.1782827975907748    0.6993665242245620 O
   0.8217167860885074    0.3006332688214956    0.1223492923991170 O
   0.4789152333311709    0.1782827964212233    0.3006334144651150 O
   0.3006333709958899    0.1223494722767167    0.8217172780917068 O
