Rh2 I2
1.0
   2.0181284721732200   -3.4955006385221745   -0.0000000000000000
   2.0181284721732200    3.4955006385221745   -0.0000000000000000
   0.0000000000000000   -0.0000000000000000    7.5668993266795281
Rh I
2 2
direct
   0.3333334089706690    0.6666673480806292    0.3607874947819654 Rh
   0.6666673480806292    0.3333334089706691    0.8607875392731397 Rh
   0.3333334089706690    0.6666673480806292    0.0142125385864152 I
   0.6666673480806292    0.3333334089706691    0.5142125830775895 I
