Li1 Be1 Nb1
1.0
   1.3638734462965911   -2.3622971956000316   -0.0000000000000000
   1.3638734462965911    2.3622971956000316    0.0000000000000000
  -0.0000000000000000    0.0000000000000000    7.0523416687459717
Li Be Nb
1 1 1
direct
   0.6666659344362209    0.3333315387189311    0.3109293005581682 Li
   0.0000000000000000    0.0000000000000000    0.0000263021197628 Be
   0.3333315387189311    0.6666659344362209    0.6890441606991142 Nb
