Tm2 Tc1 Ag1
1.0
   4.2286881520506814   -0.0000000000000000    2.4414342429054430
   1.4095627173502274    3.9868454237843296    2.4414342429054430
  -0.0000000000000000   -0.0000000000000000    4.8828684858108851
Tm Tc Ag
2 1 1
direct
   0.7499995588459024    0.7500008608715382    0.7499987193124534 Tm
   0.2499998529486341    0.2500002869571794    0.2499995731041512 Tm
   0.0000000000000000    0.0000000000000000    0.0000000000000000 Tc
   0.4999997058972683    0.5000005739143588    0.4999991462083024 Ag
