Li2 Mg1 Tl1
1.0
   4.1168184129201890   -0.0000000012878683    2.3768458754821737
   1.3722731335529892    3.8813732616335659    2.3768458754821733
   0.0000000049759408    0.0000000035185210    4.7536927337271839
Li Mg Tl
2 1 1
direct
   0.2499999758613060    0.2499997897738761    0.2500004072362849 Li
   0.7499999275839179    0.7499993693216285    0.7500012217088544 Li
   0.0000000000000000    0.0000000000000000    0.0000000000000000 Mg
   0.4999999517226119    0.4999995795477523    0.5000008144725697 Tl
