Er6 Pd4
1.0
   7.6863092070048777    0.0000000000000000   -0.0000000000000000
  -0.0000000000000000    7.6863092070048777    0.0000000000000000
   0.0000000000000000   -0.0000000000000000    3.8857786618500012
Er Pd
6 4
direct
   0.8355523956892310    0.6644477590654960    0.5000001721855662 Er
   0.3355523441043220    0.8355523956892310    0.5000001721855662 Er
   0.1644477074805870    0.3355523441043220    0.5000001721855662 Er
   0.6644477590654960    0.1644477074805870    0.5000001721855662 Er
   0.5000000515849090    0.5000000515849090    0.0000000000000000 Er
   0.0000000000000000    0.0000000000000000    0.0000000000000000 Er
   0.1342100227640603    0.6342100743489693    0.0000000000000000 Pd
   0.6342100743489693    0.8657900804057578    0.0000000000000000 Pd
   0.3657900288208487    0.1342100227640603    0.0000000000000000 Pd
   0.8657900804057578    0.3657900288208487    0.0000000000000000 Pd
