Li4 Nb1 Fe5 O12
1.0
   4.8803481453092745   -0.0006562666571120   -0.1853408642358652
  -2.4512624413803690    4.2200845840038017   -0.1853409242952468
  -0.4231901510864511   -0.7351004375353050    9.9104018910968232
Li Nb Fe O
4 1 5 12
direct
   0.2473425680595293    0.5815402069544285    0.7408743149910511 Li
   0.4184589719491800    0.7526562823755117    0.2591256398704436 Li
   0.5815409934101210    0.2473418423781302    0.7408743140622075 Li
   0.7526573972997728    0.4184579177992139    0.2591256389416001 Li
   0.0000000000000000    0.0000000000000000    0.0000000000000000 Nb
   0.1616084944675867    0.8383904890720548    0.4999999778941585 Fe
   0.3333822916024938    0.6666166626756542    0.0000000716807958 Fe
   0.4999999826796508    0.4999990623768210    0.4999999769663255 Fe
   0.6666176235668098    0.3333813912356328    0.0000000708077382 Fe
   0.8383914708917155    0.1616076356815879    0.4999999760384923 Fe
   0.8670319549359432    0.5257280283530226    0.6031255671552108 O
   0.4742706843920715    0.1329674845512618    0.3968743858244201 O
   0.7906238434718390    0.7906223800342675    0.3924658869574238 O
   0.6085269515531956    0.6085258371861729    0.8841936350641795 O
   0.3914730138061058    0.3914722875674693    0.1158063188684717 O
   0.0380561683040378    0.6843260771151576    0.1158234656244080 O
   0.5257292809672297    0.8670306402023803    0.6031255681082307 O
   0.1329680104233581    0.4742700964006191    0.3968743867774402 O
   0.3156731924075114   -0.0380563587500079    0.8841764174168496 O
   0.6843268056496872    0.0380555571017775    0.1158234639402057 O
   0.2093761218874625    0.2093757447193744    0.6075340669752268 O
  -0.0380561508119368    0.3156729201290709    0.8841764183953048 O
