Mg3 Si4 H2 O12
1.0
   2.6111661670997295    4.6173931724607620   -0.4963584942125265
  -2.6432617795330056    4.6235005186106850    0.3850702136347215
  -0.1164151071310666   -0.0204465352690205    9.4302979692279187
Mg Si H O
3 4 2 12
direct
   0.0000000000000000    0.0000000000000000    0.0000000000000000 Mg
   0.6666502229661267    0.6668680489723934    0.0002246190524325 Mg
   0.3333491358594287    0.3331310438133787    0.9997754172601719 Mg
   0.2360811059367350    0.7546755392972389    0.7044742834983725 Si
   0.7639182528888209    0.2453235534885325    0.2955257528142324 Si
   0.9019623067629472    0.4218336760790932    0.7044723572050375 Si
   0.0980370520626086    0.5781654167066785    0.2955276791075682 Si
   0.5959925051960151    0.0656065042455680    0.7809190205504755 H
   0.4040068536295406    0.9343925885402029    0.2190810157621293 H
   0.4508104041127420    0.3600918415228755    0.3557008897872782 O
   0.5491889547128128    0.6399072512628964    0.6442991465253267 O
   0.9846022387483225    0.8944466509148025    0.3532759943976586 O
   0.0153971200772324    0.1055524418709688    0.6467240419149464 O
   0.9155733738630532    0.4288984739713405    0.3534436747683620 O
   0.7049898700707025    0.2985320306530224    0.1188408096937372 O
   0.0405162821529417    0.6304214136991139    0.1188084332880369 O
   0.9594830766726133    0.3695776790866581    0.8811916030245681 O
   0.6293554046197944    0.0338006015403829    0.8858386607175449 O
   0.2950094887548533    0.7014670621327490    0.8811592266188673 O
   0.0844259849625026    0.5711006188144313    0.6465563615442432 O
   0.3706439542057606    0.9661984912453887    0.1141613755950596 O
