Li1 Cd2 Ag1
1.0
  -0.0000000000000000    3.3367513465723366    3.3367513465723366
   3.3367513465723366   -0.0000000000000000    3.3367513465723366
   3.3367513465723366    3.3367513465723366    0.0000000000000000
Li Cd Ag
1 2 1
direct
   0.7499996973315816    0.7499996973315817    0.7499996973315817 Li
   0.4999987982214605    0.4999987982214605    0.4999987982214605 Cd
   0.0000000000000000    0.0000000000000000    0.0000000000000000 Cd
   0.2499998991105272    0.2499998991105272    0.2499998991105272 Ag
