Ba1 Na1 H6 Ir1
1.0
   4.7693217023341798   -0.0000000000000000    2.7535691686945638
   1.5897739007780602    4.4965596231742238    2.7535691686945638
  -0.0000000000000000   -0.0000000000000000    5.5071383373891267
Ba Na H Ir
1 1 6 1
direct
   0.7499990979314308    0.7500000628523483    0.7500008724596924 Ba
   0.2499996993104770    0.2500000209507828    0.2500002908198975 Na
   0.7822976190454928    0.2177019358321679    0.2177023568242012 H
   0.2177011781964151    0.7822981479709632    0.2177024711793422 H
   0.7822971414965855    0.7822981479709632    0.2177026571672805 H
   0.2177011781964151    0.7822981479709632    0.7822988064553889 H
   0.7822976190454928    0.2177019358321679    0.7822986921002477 H
   0.2177016557453225    0.2177019358321679    0.7822985061123096 H
   0.0000000000000000    0.0000000000000000    0.0000000000000000 Ir
