Mg1 Se1
1.0
   3.6459868796916250    0.0000000043346543    2.1050112307777527
   1.2153286332415227    3.4374693197444843    2.1050112307777522
   0.0000000044875648    0.0000000031731877    4.2100234460101253
Mg Se
1 1
direct
   0.0000000000000000    0.0000000000000000    0.0000000000000000 Mg
   0.2500002910547456    0.2500000489275404    0.2499994792052905 Se
