Ba1 Ni1 Rh2
1.0
  -2.1636754263203941    2.1636754263203941    4.0033200451051130
   2.1636754263203941   -2.1636754263203941    4.0033200451051130
   2.1636754263203941    2.1636754263203941   -4.0033200451051130
Ba Ni Rh
1 1 2
direct
   0.2499999971832684    0.7500010541069525    0.5000010569236841 Ba
   0.7500010541069526    0.2499999971832683    0.5000010569236841 Ni
   0.0000000000000000    0.0000000000000000    0.0000000000000000 Rh
   0.4999999943665367    0.4999999943665367    0.0000000000000000 Rh
