Ba4 Hf1 Nb1
1.0
   0.0000000000000000    4.7913743292290532    4.7913743292290532
   4.7913743292290532    0.0000000000000000    4.7913743292290532
   4.7913743292290532    4.7913743292290532    0.0000000000000000
Ba Hf Nb
4 1 1
direct
   0.1245197103562360    0.6251594941836534    0.6251594941836534 Ba
   0.6251594941836534    0.6251594941836534    0.6251594941836534 Ba
   0.6251594941836534    0.1245197103562360    0.6251594941836532 Ba
   0.6251594941836534    0.6251594941836534    0.1245197103562360 Ba
   0.2499997741133986    0.2499997741133986    0.2499997741133986 Hf
   0.0000000000000000    0.0000000000000000    0.0000000000000000 Nb
