Zr2 Tl2 Cu2 S6
1.0
   3.7358558398660167    0.0000000000000000    0.0000000000000000
  -1.8679279199330083    7.0488346490622522    0.0000000000000000
   0.0000000000000000   -0.0000000000000000    9.8141505011104613
Zr Tl Cu S
2 2 2 6
direct
   0.0000000000000000    0.0000000000000000    0.4999999744700032 Zr
   0.0000000000000000    0.0000000000000000    0.0000000000000000 Zr
   0.2559113816644124    0.5118237633299358    0.2499999872350016 Tl
   0.7440888453449472    0.4881755771195876    0.7499999617050048 Tl
   0.4604122553561222    0.9208245107122442    0.7499999617050048 Cu
   0.5395879716532374    0.0791748297372791    0.2499999872350016 Cu
   0.3761265372489466    0.7522530744979004    0.5490883968886926 S
   0.6238736897604130    0.2477462659516229    0.4509115520513138 S
   0.6238736897604130    0.2477462659516229    0.0490884224186894 S
   0.0616865908459051    0.1233741816929212    0.7499999617050048 S
   0.9383136361634546    0.8766251587566023    0.2499999872350016 S
   0.3761265372489466    0.7522530744979004    0.9509115265213172 S
