Li1 H1 F2
1.0
   2.5753736691490512   -0.0079947401826831    1.4569936296715851
   0.8639508293702755    2.4261497101471798    1.4569936296715849
   0.0366698433797750    0.0257822034689652    5.3717073455312034
Li H F
1 1 2
direct
   0.0000000000000000    0.0000000000000000    0.0000000000000000 Li
   0.0000001791056310   -0.0000004569444924    0.5000003224382376 H
   0.8125222812949821    0.8125249761856775    0.7588604504536255 F
   0.1874756507641428    0.1874761885484753    0.2411389372814613 F
