Ga2 Se2 Br14
1.0
   0.0000000000000000    6.5536825802989185   -0.1393935891316763
   6.5075543868604528    0.0000000000000000    0.0000000000000000
   0.0000000000000000   -3.1876174882815946  -14.1125496105449724
Ga Se Br
2 2 14
direct
   0.3339884127257147   -0.0049723299597013    0.4990931287114896 Ga
   0.3339882286945771    0.0049723299597014    0.9990931443273970 Ga
   0.0520810483840380    0.5811402231442585    0.3375340367814823 Se
   0.0520808643529003    0.4188591027376025    0.8375340523973897 Se
   0.7783054133092833    0.6286017867040843    0.8705598031475017 Br
   0.7783055973404210    0.3713975391777775    0.3705597875315948 Br
   0.3666666338579831    0.3534345460058333    0.5121253708591458 Br
   0.3666668178891208    0.6465647798760280    0.0121253552432381 Br
   0.5596135514014208    0.8401822635730336    0.6284443352451061 Br
   0.5596137354325585    0.1598170623088274    0.1284443196291982 Br
   0.4235294631572949    0.1251000121891681    0.8572386436552102 Br
   0.8502754240543372    0.8121256350108857    0.2268630919359291 Br
  -0.0071878968496946    0.8775305879998654    0.4989199784421499 Br
  -0.0071877128185569    0.1224687378819948   -0.0010800371737581 Br
   0.1954744041771460    0.3719279026196878    0.2323498713876317 Br
   0.1954742201460083    0.6280714232621736    0.7323498870035394 Br
   0.4235296471884326    0.8748993136926931    0.3572386280393021 Br
   0.8502752400231995    0.1878736908709756    0.7268631075518371 Br
