I4 O8 F4
1.0
   5.3320595177923646    0.0000000000000000    0.0000000000000000
   0.0000000000000000    5.7243532334936855    0.0000000000000000
   0.0000000000000000    0.0000000000000000    7.6735127918366715
I O F
4 8 4
direct
   0.2908637774338060    0.3948684430335073    0.6668157922818109 I
   0.7908638226515717    0.1051312745333903    0.3331838438904678 I
   0.7091363130017252    0.8948681606004051    0.8331836619766076 I
   0.2091362677839598    0.6051309921002879    0.1668159741956715 I
   0.3985407608890747    0.3380113825226844    0.4480972762850326 O
   0.8985408061068404    0.1619883350442133    0.5519023598872469 O
   0.6014593295464565    0.8380111000895818    0.0519025418011072 O
   0.1014592843286909    0.6619880526111112    0.9480970943711716 O
   0.5727185395138409    0.5518547532638747    0.7425627179947443 O
   0.9272815961394563    0.4481446818699197    0.2425628999086048 O
   0.4272815509216907    0.0518550356969777    0.7574367362636742 O
   0.0727184942960750    0.9481443994368183    0.2574369181775345 O
   0.3793200867816512    0.3213433138200715    0.0825940331566812 F
   0.6206800036538804    0.8213430313869691    0.4174057849294586 F
   0.8793201319994166    0.1786564037468263    0.9174056030155978 F
   0.1206799584361150    0.6786561213137239    0.5825938512428208 F
