Ti1 As1 Se1
1.0
  -0.0000000000000000    3.1437045344527239    3.1437045344527239
   3.1437045344527239    0.0000000000000000    3.1437045344527239
   3.1437045344527239    3.1437045344527239    0.0000000000000000
Ti As Se
1 1 1
direct
   0.0000000000000000    0.0000000000000000    0.0000000000000000 Ti
   0.4999992788042461    0.4999992788042461    0.4999992788042461 As
   0.2499996394021230    0.2499996394021230    0.2499996394021230 Se
