Ti2 Fe2 H2
1.0
  -2.8996637964408776    0.0000000000000000    0.0000000000000000
   0.0000000000000000   -0.0000000000000000   -4.2650013490981831
   0.0000000000000000   -4.5523557747217902   -0.0000000000000000
Ti Fe H
2 2 2
direct
   0.4999993453653347    0.7499997627612386    0.2534219934149968 Ti
   0.4999993453653347    0.2499999209204129    0.7465789347370236 Ti
   0.0000000000000000    0.7499997627612386    0.6965006568180587 Fe
   0.0000000000000000    0.2499999209204129    0.3035002713339616 Fe
   0.0000000000000000    0.4999998418408257    0.0000000000000000 H
   0.0000000000000000    0.0000000000000000    0.0000000000000000 H
