Y10 Si6
1.0
   4.2284597750102808   -7.3239063129153896    0.0000000000000000
   4.2284597750102808    7.3239063129153896   -0.0000000000000000
  -0.0000000000000000   -0.0000000000000000    6.3745874733050085
Y Si
10 6
direct
   0.2436427045064102    0.2436427045064102    0.7500002972774711 Y
   0.7563573487020228    0.7563573487020228    0.2500000990924904 Y
   0.2436427593531848   -0.0000000548467747    0.2500000990924904 Y
  -0.0000001702647225    0.7563575189667455    0.7500002972774711 Y
   0.7563575189667454   -0.0000001702647224    0.7500002972774711 Y
  -0.0000000548467747    0.2436427593531848    0.2500000990924904 Y
   0.3333329426988141    0.6666671105096191    0.5000001981849808 Y
   0.6666671105096191    0.3333329426988141    0.0000000000000000 Y
   0.6666671105096191    0.3333329426988141    0.5000001981849808 Y
   0.3333329426988141    0.6666671105096191    0.0000000000000000 Y
  -0.0000000886466150    0.3937899892290834    0.7500002972774711 Si
   0.6062102890908468   -0.0000001364648821    0.2500000990924904 Si
   0.3937899005824683    0.3937899005824683    0.2500000990924904 Si
   0.6062101526259650    0.6062101526259650    0.7500002972774711 Si
   0.3937899892290833   -0.0000000886466151    0.7500002972774711 Si
  -0.0000001364648821    0.6062102890908468    0.2500000990924904 Si
