Be1 Tl1 Cu4
1.0
   0.0000000000000000    3.4891330477975919    3.4891330477975919
   3.4891330477975919    0.0000000000000000    3.4891330477975919
   3.4891330477975919    3.4891330477975919   -0.0000000000000000
Be Tl Cu
1 1 4
direct
   0.0000000000000000    0.0000000000000000    0.0000000000000000 Be
   0.2499997816221429    0.2499997816221429    0.2499997816221429 Tl
   0.1220582074075301    0.6259796818568298    0.6259796818568298 Cu
   0.6259796818568297    0.6259796818568298    0.6259796818568298 Cu
   0.6259796818568297    0.1220582074075302    0.6259796818568298 Cu
   0.6259796818568298    0.6259796818568298    0.1220582074075302 Cu
