Pm1 Ga1 Cu2
1.0
   0.0000000000000000    3.2791837545477232    3.2791837545477232
   3.2791837545477232   -0.0000000000000000    3.2791837545477232
   3.2791837545477232    3.2791837545477232    0.0000000000000000
Pm Ga Cu
1 1 2
direct
   0.7499981412780620    0.7499981412780619    0.7499981412780615 Pm
   0.2499997137589715    0.2499997137589715    0.2499997137589714 Ga
   0.4999994275179430    0.4999994275179430    0.4999994275179428 Cu
   0.0000000000000000    0.0000000000000000    0.0000000000000000 Cu
