Li1 Zn2 Rh1
1.0
   0.0000000000000000    3.0130331447380003    3.0130331447380003
   3.0130331447380003    0.0000000000000000    3.0130331447380003
   3.0130331447380003    3.0130331447380003    0.0000000000000000
Li Zn Rh
1 2 1
direct
   0.2499997390720705    0.2499997390720705    0.2499997390720705 Li
   0.0000000000000000    0.0000000000000000    0.0000000000000000 Zn
   0.4999984781451872    0.4999984781451872    0.4999984781451872 Zn
   0.7499992172162114    0.7499992172162114    0.7499992172162114 Rh
