Sr1 In1 P1
1.0
   3.9953068074124944    0.9376222489949894    0.0000000000000000
   0.5517843660016200    6.6263597818282092    0.0000000000000000
   0.0000000000000000    0.0000000000000000    4.8095429719389529
Sr In P
1 1 1
direct
  -0.2242828181934286    0.4213106628570664    0.0000000000000000 Sr
   0.0599808979421481   -0.1472949577811741    0.0000000000000000 In
   0.4363290215070615    0.1000217580354101    0.0000000000000000 P
