K8 Cd4 O8
1.0
   6.2718055985051224    0.0000000000000000    0.0000000000000000
  -0.0000000000000000    6.1903193312722218    0.0000000000000000
   0.0000000000000000    0.0000000000000000    9.9592028202060252
K Cd O
8 4 8
direct
   0.6108412612610623    0.3988222542380764    0.1554215132349624 K
   0.1108409103657094    0.1011777997759205    0.3445783451770973 K
   0.8891597914249966    0.3988222542380764    0.8445782035891574 K
   0.3891594405296437    0.6011778537899173    0.8445782035891574 K
   0.6108412612610623    0.8988223082520733    0.3445783451770973 K
   0.1108409103657094    0.6011778537899173    0.1554215132349624 K
   0.3891594405296437    0.1011777997759205    0.6554213716470222 K
   0.8891597914249966    0.8988223082520733    0.6554213716470222 K
   0.2500001754476765    0.5432939698507123    0.4999998584120598 Cd
   0.7500005263430294    0.4567061381772816    0.4999998584120598 Cd
   0.2500001754476765    0.0432939158367154    0.0000000000000000 Cd
   0.7500005263430294    0.9567061921912783    0.0000000000000000 Cd
   0.9776477900189624    0.7016252072774100    0.4001613746080178 O
   0.0223529117717435    0.2983749007505840    0.5998383422161018 O
   0.9776477900189624    0.2016251532634129    0.0998384838040419 O
   0.4776474391236094    0.7983749547645806    0.0998384838040419 O
   0.4776474391236094    0.2983749007505840    0.4001613746080178 O
   0.5223532626670965    0.7016252072774100    0.5998383422161018 O
   0.0223529117717435    0.7983749547645806    0.9001612330200778 O
   0.5223532626670965    0.2016251532634129    0.9001612330200778 O
