Hf2 Cu1 Os1
1.0
   0.0000000000000000    3.2486640266013329    3.2486640266013329
   3.2486650220859961    0.0000000000000000    3.2486640266013329
   3.2486650220859961    3.2486640266013329    0.0000000000000000
Hf Cu Os
2 1 1
direct
   0.0000000000000000    0.0000000000000000    0.0000000000000000 Hf
   0.4999969943926243    0.4999997661460986    0.4999997661460986 Hf
   0.2499989971943053    0.2500003830738142    0.2500003830738142 Cu
   0.7499969915829159    0.7500011492214426    0.7500011492214426 Os
