Sm4 Mn2 Ni2 O12
1.0
   0.0000000000000000    5.3319904565059186   -0.0003718479404857
   5.5674482621967583    0.0000000000000000    0.0000000000000000
   0.0000000000000000   -5.2976835752239246   -7.6137909541889526
Sm Mn Ni O
4 2 2 12
direct
   0.7655074498403740    0.4373397813809619    0.2505393175399762 Sm
   0.7655077228300795    0.0626603746872368    0.7505392548647610 Sm
   0.2344927693904645    0.5626605307554354    0.7494603144159082 Sm
   0.2344924964007590    0.9373399374491602    0.2494603770911235 Sm
   0.5000001096154194    0.5000001560681986    0.4999998159779422 Mn
   0.4999998366257140    0.0000000000000000   -0.0000001213468426 Mn
   0.0000002729897055    0.0000000000000000    0.4999999373247848 Ni
   0.0000000000000000    0.5000001560681986    0.0000000000000000 Ni
   0.2597765424250384    0.2883706758952799    0.9526160242343308 O
   0.7402239497955055    0.7883708319634787    0.5473835450463385 O
   0.2597762694353329    0.2116294801729186    0.4526160869095459 O
   0.6549461227132777    0.4780112512638011    0.7437068850846976 O
   0.8371455317063877    0.1956121388012197    0.0450595829835733 O
   0.1628546875244509    0.8043881733351775    0.9549400489723112 O
   0.3450540965175614    0.5219890608725961    0.2562927468711866 O
   0.8371458046960933    0.3043880172669789    0.5450595203083580 O
   0.1628544145347455    0.6956122948694181    0.4549401116475265 O
   0.3450543695072668    0.9780114073319995    0.7562926841959716 O
   0.6549458497235722    0.0219889048043975    0.2437069477599130 O
   0.7402236768058001    0.7116296362411170    0.0473836077215536 O
