Ta1 As1 Os2
1.0
  -0.0000000000000000    3.1690231356856593    3.1690231356856593
   3.1690231356856593    0.0000000000000000    3.1690231356856593
   3.1690231356856593    3.1690231356856593   -0.0000000000000000
Ta As Os
1 1 2
direct
   0.2499997526299490    0.2499997526299490    0.2499997526299490 Ta
   0.4999995052598979    0.4999995052598979    0.4999995052598979 As
   0.0000000000000000    0.0000000000000000    0.0000000000000000 Os
   0.7499992578898469    0.7499992578898470    0.7499992578898470 Os
