Y1 Be1 Os2
1.0
   3.9442794659355442    0.0000000000000000    0.0000000000000000
   0.0000000000000000    3.9442794659355442   -0.0000000000000000
   0.0000000000000000    0.0000000000000000    4.1097913248118205
Y Be Os
1 1 2
direct
   0.5000000677011430    0.5000000677011430    0.4999998388224954 Y
   0.0000000000000000    0.0000000000000000    0.4999998388224954 Be
   0.0000000000000000    0.5000000677011430    0.0000000000000000 Os
   0.5000000677011430    0.0000000000000000    0.0000000000000000 Os
