Te2 Pb4 O10
1.0
   5.3354027353935454   -0.0008027227560811    2.2820503647226777
   1.7629260014580259    6.1418679274561780    3.2555435810805542
   0.0129074277800664   -0.0486405845108425    7.3521560360577620
Te Pb O
2 4 10
direct
   0.0489684617840098    0.2161678651864717    0.6857483193408647 Te
   0.0489945893802137    0.7161665638447740    0.1857499191550032 Te
   0.3818401830975990    0.5360087785001078    0.6844513745600000 Pb
   0.7160640547479531    0.8963390967572892    0.6870681455295220 Pb
   0.3974950221455002    0.0359672922216788    0.1848139709243956 Pb
   0.7004922846213771    0.3963782922865519    0.1867062743434436 Pb
   0.2931027744898929    0.6962731887675677    0.3158785541511076 O
   0.9887953105696317    0.4227513996535276    0.8146231812767937 O
   0.8048999751756348    0.7360646669507224    0.0556092837807292 O
   0.6945568065900051    0.1962344105445878    0.8159633767745809 O
   0.7734397178669928    0.9221672420531752    0.3152068895940360 O
   0.4033746616971280    0.2361012977625145    0.5555239664361181 O
   0.3245463608281862    0.5101595858725165    0.0563033679929441 O
   0.1091401351834982    0.0095759243705959    0.5568865626172125 O
   0.1816306045177339    0.9664773669199680    0.9359455183743590 O
   0.9163273925021556    0.4658678421036800    0.4355560087096471 O
