Dy2 Ir4
1.0
   4.6379790867480422    0.0000000004100923    2.6777384416479229
   1.5459926963559580    4.3727291107043715    2.6777384416479229
   0.0000000000000000   -0.0000000000000000    5.3554768832958457
Dy Ir
2 4
direct
   0.8749996043102377    0.8750001778694322    0.8750011273502384 Dy
   0.1249999434728911    0.1250000254099189    0.1250001610500341 Dy
   0.4999997738915642    0.5000001016396756    0.5000006442001362 Ir
   0.4999997738915642    0.5000001016396756    0.0000003532172582 Ir
  -0.0000003245777184    0.5000001016865676    0.5000005479198926 Ir
   0.5000000984692826   -0.0000000000468920    0.5000003872631218 Ir
