Mn2 Co1 Ru1
1.0
  -0.0000000000000000    2.9230832244608278    2.9230832244608278
   2.9230832244608278    0.0000000000000000    2.9230832244608278
   2.9230832244608278    2.9230832244608278    0.0000000000000000
Mn Co Ru
2 1 1
direct
   0.0000000000000000    0.0000000000000000    0.0000000000000000 Mn
   0.4999994484486791    0.4999994484486790    0.4999994484486790 Mn
   0.2499997242243395    0.2499997242243395    0.2499997242243395 Co
   0.7499991726730185    0.7499991726730185    0.7499991726730185 Ru
