Ba4 Mg1 Ti1
1.0
   0.0000000000000000    5.0655367415486410    5.0655367415486410
   5.0655367415486410   -0.0000000000000000    5.0655367415486410
   5.0655367415486410    5.0655367415486410    0.0000000000000000
Ba Mg Ti
4 1 1
direct
   0.1238723837852613    0.6253759675772664    0.6253759675772664 Ba
   0.6253759675772664    0.6253759675772664    0.6253759675772665 Ba
   0.6253759675772664    0.1238723837852613    0.6253759675772664 Ba
   0.6253759675772664    0.6253759675772664    0.1238723837852613 Ba
   0.2500001608147135    0.2500001608147135    0.2500001608147135 Mg
   0.0000000000000000    0.0000000000000000    0.0000000000000000 Ti
