Na1 Cd2 Ag1
1.0
 -11.7587978940533127    2.6024406896050207   -2.5391771135283636
  -8.1460506679654667    0.6418976916591247    0.8098496120135842
  -6.8571860034678940    4.2873580316131754   -1.4225305646432120
Na Cd Ag
1 2 1
direct
   0.0000000000000000    0.0000000000000000    0.0000000000000000 Na
   0.7482904602482647    0.0011305038004175    0.0011305961222435 Cd
   0.2517108322032642   -0.0011314321314650   -0.0011314025022768 Cd
   0.5000006462257643   -0.0000004641655236   -0.0000004031900166 Ag
