Ba2 Ga4 B4 O14
1.0
   5.8443362802834775   -0.0000000000000000   -0.0000000000000000
  -0.0000000000000000    7.0501206170594015   -2.1168980986776353
  -0.0000000000000000    0.0223328032026390    7.3610431296799490
Ba Ga B O
2 4 4 14
direct
   0.7500004773488825    0.1957528727250410    0.1957528062278387 Ba
   0.2500001591162941    0.8042466447443011    0.8042463715421542 Ba
   0.7500004773488825    0.1265895516627287    0.7097968215015427 Ga
   0.2500001591162941    0.2902023891255481    0.8734096033848553 Ga
   0.7500004773488825    0.7097971283437937    0.1265895743851376 Ga
   0.2500001591162941    0.8734099658066132    0.2902023562684500 Ga
   0.2500001591162941    0.5048178220578092    0.2824743772893767 B
   0.7500004773488825    0.4951816954115327    0.7175248004806163 B
   0.7500004773488825    0.7175250692804683    0.4951815522556165 B
   0.2500001591162941    0.2824744481888733    0.5048176255143765 B
   0.7500004773488825    0.5859494261521901    0.3199020363430642 O
   0.7500004773488825    0.9056968752371815    0.5078353438480530 O
   0.7500004773488825    0.5078354715224219    0.9056965227355415 O
   0.2500001591162941    0.6800974024379340    0.4140499806467513 O
   0.2500001591162941    0.0943026422321606    0.4921638339219402 O
   0.2500001591162941    0.3344050981455288    0.3344049845482020 O
   0.7500004773488825    0.6655944193238127    0.6655941932217905 O
   0.5000003182325883    0.8674939898424656    0.1325055654444408 O
   0.7500004773488825    0.3199021150314080    0.5859491971232417 O
   0.0000000000000000    0.8674939898424656    0.1325055654444408 O
   0.2500001591162941    0.4140500913171521    0.6800971414269289 O
   0.5000003182325883    0.1325055276268764    0.8674936123255518 O
   0.0000000000000000    0.1325055276268764    0.8674936123255518 O
   0.2500001591162941    0.4921640459469199    0.0943026550344513 O
