Pd2 Se12 Cl4
1.0
   0.0000000000000000    4.3451635811325975   -0.0583642972467422
   8.5820394581683992    0.0000000000000000    0.0000000000000000
   0.0000000000000000   -2.3492201386346845  -12.7298821212042270
Pd Se Cl
2 12 4
direct
  -0.0000000290202137    0.5000000315677644    0.4999999168171111 Pd
   0.0000000000000000    0.0000000000000000    0.0000000000000000 Pd
   0.8174365206841937    0.6204263278377584    0.8492093472389814 Se
   0.9793432877926834    0.8647811110760723    0.6440141065454482 Se
   0.1876173626289256    0.7681990318072739    0.4927274008247378 Se
   0.8123816041661642    0.2681990002395094    0.0072721830247803 Se
   0.8123815751459506    0.2318010313282551    0.5072720998418915 Se
   0.1876173336087119    0.7318010628960194    0.9927273176418488 Se
   0.9793433168128971    0.6352189836272211    0.1440141897283370 Se
   0.1825624170906824    0.3795737352977703    0.1507901534276477 Se
   0.0206556209619792    0.3647810795083073    0.8559853109382921 Se
   0.8174365497044073    0.8795737668655349    0.3492094304218704 Se
   0.1825623880704687    0.1204262962699941    0.6507900702447589 Se
   0.0206556499821929    0.1352189520594569    0.3559853941211808 Se
   0.3751715634856534    0.4665656537979788    0.6496843500602253 Cl
   0.6248273742892225    0.5334344093375500    0.3503151506064038 Cl
   0.3751715925058671    0.0334343777697857    0.1496844332431143 Cl
   0.6248273452690088    0.9665656853657432    0.8503150674235153 Cl
