Sb1 As1 O1
1.0
   3.0379092809080750   -0.0000000000000000    0.0000000000000000
   0.0000000000000000    3.0379092809081709   -0.0000000000000000
  -0.0000000000000000   -0.0000000000000000    6.9657077154981515
Sb As O
1 1 1
direct
   0.0000000000000000    0.0000000000000000    0.7160594682840399 Sb
   0.0000000000000000    0.0000000000000000    0.2602964281224768 As
   0.0000000000000000    0.0000000000000000    0.0049811431883185 O
