Mg1 B1 C1
1.0
   3.6854543466880427    0.0000000000000000   -0.0000000000000000
  -1.8427271733440214    3.1916970887360052    0.0000000000000000
   0.0000000000000000    0.0000000000000000    3.8236133674791151
Mg B C
1 1 1
direct
   0.6666658822658442    0.3333337730934219    0.0000000000000000 Mg
   0.0000000000000000    0.0000000000000000    0.0000000000000000 B
   0.3333328686187373    0.6666675461513166    0.0000000000000000 C
