Ca3 Mn1 O4
1.0
   0.0000000000000000    2.3670341173980538    2.3670341173980538
  -4.7129336834527775    2.3502991832828020   -2.3502991832828015
  -4.7129336834527775   -2.3502991832828015    2.3502991832828015
Ca Mn O
3 1 4
direct
  -0.0000000000000000    0.4999996092186921    0.4999996092186921 Ca
   0.4999991302622082   -0.0000002822644022    0.4999998914830943 Ca
   0.4999991302622081    0.4999998914830943   -0.0000002822644022 Ca
   0.0000000000000000    0.0000000000000000    0.0000000000000000 Mn
  -0.0000000000000000    0.7532495891088214    0.7532495891088214 O
   0.4999991302622081    0.2417897819660042    0.7582094364713849 O
   0.4999991302622080    0.7582094364713849    0.2417897819660043 O
  -0.0000000000000000    0.2467496293285567    0.2467496293285567 O
