K2 Rb1 Mo1 I6
1.0
   7.5204082010883324   -0.0000000000000000    4.3419096993142192
   2.5068027336961110    7.0903088483739802    4.3419096993142192
  -0.0000000000000000   -0.0000000000000000    8.6838193986284367
K Rb Mo I
2 1 1 6
direct
   0.7499998661695925    0.7500001218169100    0.7500001098846973 K
   0.2499999553898641    0.2500000406056367    0.2500000366282324 K
   0.4999999107797283    0.5000000812112734    0.5000000732564649 Rb
   0.0000000000000000    0.0000000000000000    0.0000000000000000 Mo
   0.7723584374295601    0.2276416892224850    0.2276416393129403 I
   0.2276416116278479    0.2276416892224850    0.7723584188267993 I
   0.2276413841298963    0.7723584732000617    0.7723585071999896 I
   0.2276413841298963    0.7723584732000617    0.2276417739739839 I
   0.7723584374295601    0.2276416892224850    0.7723583725389459 I
   0.7723582099316083    0.7723584732000617    0.2276417276861306 I
