Ta2 P2 S2
1.0
  -3.4687024211470359   -0.0000000002162974    0.0000000000000000
   0.0000000000000000   -0.0000000002985273   -4.7729060643456043
   1.7343517121759839   -5.9620559487626599    2.3864535348175946
Ta P S
2 2 2
direct
   0.8768374212590712    0.3768385301760516    0.7536753225384275 Ta
   0.1231627140587017    0.6231633747156662    0.2463253568786307 Ta
   0.4999996509862174    0.2357623024553125   -0.0000000000296566 P
   0.4999996509726989    0.7642385220839244   -0.0000000000566936 P
   0.7865861203576949    0.7865874595685094    0.5731737729413072 S
   0.2134140149600783    0.2134144453232081    0.4268269064757509 S
