Tb1 Bi1
1.0
   3.8778151607964797   -0.0000000018587189    2.2388580128915296
   1.2926053840687555    3.6560388076950283    2.2388580128915296
  -0.0000000019242875   -0.0000000013606765    4.4777150324489874
Tb Bi
1 1
direct
   0.0000000000000000    0.0000000000000000    0.0000000000000000 Tb
   0.5000011648798137    0.5000001634999566    0.5000003342844000 Bi
