Y1 Ga2 Co2
1.0
  -2.0231559048726897    2.0231559048726897    4.9180386356096779
   2.0231559048726897   -2.0231559048726897    4.9180386356096779
   2.0231559048726897    2.0231559048726897   -4.9180386356096779
Y Ga Co
1 2 2
direct
   0.0000000000000000    0.0000000000000000    0.0000000000000000 Y
   0.3696014340652778    0.3696014340652778    0.0000000000000000 Ga
   0.6303988433604243    0.6303988433604244    0.0000000000000000 Ga
   0.7500010814206221    0.2500000693564256    0.5000010120641964 Co
   0.2500000693564256    0.7500010814206221    0.5000010120641964 Co
