Pr3 Tl1 C1
1.0
   5.8402235982899020    0.0000000000000000    0.0000000000000000
   0.0000000000000000    5.8402235982899020   -0.0000000000000000
  -0.0000000000000000    0.0000000000000000    5.8402235982899020
Pr Tl C
3 1 1
direct
   0.0000000000000000    0.4999996919390293    0.4999996919390293 Pr
   0.4999996919390293    0.4999996919390293    0.0000000000000000 Pr
   0.4999996919390293    0.0000000000000000    0.4999996919390293 Pr
   0.4999996919390293    0.4999996919390293    0.4999996919390293 Tl
   0.0000000000000000    0.0000000000000000    0.0000000000000000 C
