Sm4 Sb4 O16
1.0
   0.0000000000000000    7.6524819338567456   -0.0256396392531843
   5.4878643449180444    0.0000000000000000    0.0000000000000000
   0.0000000000000000   -1.2602187005535246   -7.5766600351974258
Sm Sb O
4 4 16
direct
   0.1046037515579252    0.2736250124834477    0.8536398367223721 Sm
   0.3953959555986524    0.7736246166174263    0.1463601834295658 Sm
   0.8953958332324452    0.7263741957845107    0.1463602076501105 Sm
   0.6046036291917181    0.2263745916505315    0.8536398609429169 Sm
   0.3051779513197911    0.7697346657884067    0.6629282281238975 Sb
   0.1948217558367867    0.2697350616544280    0.3370717920280404 Sb
   0.6948216334705792    0.2302645424795512    0.3370718162485851 Sb
   0.8051778289535838    0.7302641466135305    0.6629282523444423 Sb
   0.6948819681932269    0.4061643969814323    0.5657361641785935 O
   0.8051174942309364    0.9061640011154114    0.4342639044144342 O
   0.3754529048554254    0.5004418310149426    0.8279847635195753 O
   0.1245468023011520    0.0004422268809635    0.1720152566323628 O
   0.6245466799349448    0.4995573772530154    0.1720152808529075 O
   0.8754527824892183   -0.0004422268809636    0.8279847877401201 O
   0.5592930493878797    0.8725744146902630    0.6681177838323796 O
   0.8275565790752041    0.5200403624781158    0.8827974410190166 O
   0.4407065354024905    0.1274247935776951    0.3318822605401033 O
   0.0592931717540870    0.6274243977116741    0.6681177596118349 O
   0.1948820905594345    0.0938352071525467    0.5657361399580487 O
   0.6724428833489592    0.0200407583441366    0.1172026275740105 O
   0.1724430057151664    0.4799588457898423    0.1172026033534658 O
   0.3275567014414112    0.9799584499238213    0.8827974167984718 O
   0.9407064130362833    0.3725748105562840    0.3318822847606480 O
   0.3051176165971431    0.5938348112865256    0.4342638801938895 O
