Sn1 Pb1 O2
1.0
   3.4520776745271387    0.0000000000000000    0.0000000000000000
   0.0000000000000000    3.4520776745271387    0.0000000000000000
   0.0000000000000000   -0.0000000000000000    6.0357483093846067
Sn Pb O
1 1 2
direct
   0.5000009223234537    0.5000009223234537    0.5291046692885033 Sn
   0.0000000000000000    0.0000000000000000   -0.0088368528509149 Pb
   0.0000000000000000    0.0000000000000000    0.6106600774101489 O
   0.5000009223234537    0.5000009223234537    0.8790730132395704 O
