K2 In1 Ag1 F6
1.0
   5.4481605389509458   -0.0000000000000000    3.1454969537516257
   1.8160535129836486    5.1365750161135582    3.1454969537516257
  -0.0000000000000000   -0.0000000000000000    6.2909939075032497
K In Ag F
2 1 1 6
direct
   0.2499997332124989    0.2500002425685611    0.2500000989396884 K
   0.7499991996374964    0.7500007277056833    0.7500002968190652 K
   0.0000000000000000    0.0000000000000000    0.0000000000000000 In
   0.4999994664249977    0.5000004851371221    0.5000001978793769 Ag
   0.2347668718653386    0.2347673501855666    0.7652326410277128 F
   0.2347663582543187    0.7652336200886778    0.7652328973486860 F
   0.7652320609846569    0.7652336200886778    0.2347677547310410 F
   0.2347663582543187    0.7652336200886778    0.2347674716291912 F
   0.7652325745956766    0.2347673501855666    0.7652329241295627 F
   0.7652325745956766    0.2347673501855666    0.2347674984100678 F
