K2 Sn1 Hg1 Se4
1.0
   6.4494586821680615    0.0555659934904505   -1.8428745753041951
  -3.6568847077594393    5.3127965552535050   -1.8428745909307052
  -0.0289051152908346   -0.0555660028294830    6.7075246078880149
K Sn Hg Se
2 1 1 4
direct
   0.4999997248009274    0.0000000029494698    0.4999999227712440 K
  -0.0000000432255498    0.4999999481757934    0.4999999726212804 K
   0.5000008712092274    0.5000007038159309    0.0000011160139870 Sn
   0.0000000000000000    0.0000000000000000    0.0000000000000000 Hg
   0.4448915272027030    0.0932525163756894    0.0000005830430998 Se
   0.0932526687721812    0.4448914994346210    0.0000006181094357 Se
   0.5551090559741911    0.5551091534252955    0.6483624260246907 Se
   0.9067490432539848    0.9067488933374490    0.3516396162572593 Se
