Tm1 Rh2 Pb1
1.0
   0.0004900104503983    3.3403358995307957    3.3403358995307957
   3.3403358995307957    0.0004900104503983    3.3403358995307957
   3.3403358995307957    3.3403358995307957    0.0004900104503983
Tm Rh Pb
1 2 1
direct
   0.7499961099198761    0.7499961099198761    0.7499961099198761 Tm
   0.9999972495983398    0.9999972495983397    0.9999972495983397 Rh
   0.5000044044326774    0.5000044044326772    0.5000044044326772 Rh
   0.2500053008184706    0.2500053008184706    0.2500053008184706 Pb
