Lu1 Rh2 Pb1
1.0
  -0.0000000000000000    3.3268120678562672    3.3268120678562672
   3.3268120678562672   -0.0000000000000000    3.3268120678562672
   3.3268120678562672    3.3268120678562672   -0.0000000000000000
Lu Rh Pb
1 2 1
direct
   0.2499988446073959    0.2499988446073959    0.2499988446073959 Lu
   0.0000000000000000    0.0000000000000000    0.0000000000000000 Rh
   0.4999996892135437    0.4999996892135437    0.4999996892135437 Rh
   0.7499985338209397    0.7499985338209396    0.7499985338209397 Pb
