Li5 Co3 O8
1.0
   2.8276257584268705    0.0501773614951632   -0.0058433462223981
  -0.0992881106381154    5.7171020029647321   -0.0705572213665763
   0.0154211156494375    0.0348735437118707    8.0020346689649422
Li Co O
5 3 8
direct
   0.9997055260072690    0.2402876262923711    0.7677619607111420 Li
   0.5000004175516640    0.5000000516966606    0.0000000362260314 Li
   0.5000005502680118   -0.0000000834899468    0.4999999170152702 Li
   0.0002948962443084    0.7597118644742349    0.2322375225654409 Li
   0.5000007566938869    0.0000002228234109    0.0000002116030103 Li
  -0.0000897992758939    0.7550630130129652    0.7564583636202405 Co
   0.0000887081396979    0.2449360321068186    0.2435406964503218 Co
   0.5000002111257889    0.4999997453833028    0.4999997416382914 Co
   0.5000658412122025    0.5231558329082011    0.7377569812426102 O
  -0.0000002218531621    0.7478803478313354    0.9819082594628619 O
   0.0001265739217846    0.2749293530519852    0.4889117488673008 O
   0.5002236841382195    0.0248646551361932    0.2538567518123644 O
   0.4997767381133584    0.9751348356304125    0.7461427314642178 O
  -0.0000008692830338    0.2521186972884484    0.0180908006077002 O
  -0.0001276650579808    0.7250696920677989    0.5110873112032615 O
   0.4999345810393751    0.4768436578584044    0.2622425020339724 O
