Na4 Ga2 P2 C2 O14
1.0
   0.0000000000000000    5.1395699551208072    0.0199727658045643
   6.4913859745905000    0.0000000000000000    0.0000000000000000
   0.0000000000000000   -0.1067995435371077   -8.9080285618683863
Na Ga P C O
4 2 2 2 14
direct
   0.7710596200951586    0.5066193400675585    0.2215652071190049 Na
   0.7710596200951586    0.9933815901057934    0.2215652071190049 Na
   0.2289403096267865    0.4933812800480095    0.7784352646500846 Na
   0.2289403096267865    0.0066190300097745    0.7784352646500846 Na
   0.2176731245554543    0.2500001550288919    0.3572037858299595 Ga
   0.7823268051664909    0.7500004650866759    0.6427966859391310 Ga
   0.2804836673327544    0.7500004650866759    0.4266884962994532 P
   0.7195162623891909    0.2500001550288919    0.5733119754696367 P
   0.2872956887879849    0.2500001550288919    0.0818129750968140 C
   0.7127042409339613    0.7500004650866759    0.9181874966722762 C
   0.5303207434397713    0.7500004650866759    0.8100394621329865 O
   0.8001418814065185    0.0580110002851507    0.6639842074500487 O
   0.8001418814065185    0.4419893097726330    0.6639842074500487 O
   0.1469985463724610    0.7500004650866759    0.5820158222205678 O
   0.4161728593877845    0.2500001550288919    0.5459827925329650 O
   0.5838270703341615    0.7500004650866759    0.4540176792361251 O
   0.0521074712511250    0.2500001550288919    0.1343996950239696 O
   0.1998580483154261    0.5580113103429348    0.3360162643190414 O
   0.1998580483154261    0.9419896198304170    0.3360162643190414 O
   0.4696791862821744    0.2500001550288919    0.1899610096361039 O
   0.9478924584708205    0.7500004650866759    0.8656007767451201 O
   0.6561454575139484    0.7500004650866759    0.0546507581533813 O
   0.8530013833494839    0.2500001550288919    0.4179846495485224 O
   0.3438544722079977    0.2500001550288919    0.9453497136157092 O
