Y1 Zn2 Hg1
1.0
   0.0000000000000000    3.4026678698682029    3.4026678698682029
   3.4026678698682029   -0.0000000000000000    3.4026678698682029
   3.4026678698682029    3.4026678698682029    0.0000000000000000
Y Zn Hg
1 2 1
direct
   0.7500004695136019    0.7500004695136020    0.7500004695136020 Y
   0.0000000000000000    0.0000000000000000    0.0000000000000000 Zn
   0.5000003130090680    0.5000003130090680    0.5000003130090680 Zn
   0.2500001565045340    0.2500001565045340    0.2500001565045340 Hg
