Ta1 Mn2 Be1
1.0
  -1.7593469128630956    1.7593469128630956    4.0274961001550471
   1.7593469128630956   -1.7593469128630956    4.0274961001550471
   1.7593469128630956    1.7593469128630956   -4.0274961001550471
Ta Mn Be
1 2 1
direct
   0.5000004841525424    0.5000004841525424    0.0000000000000000 Ta
   0.0000000000000000    0.0000000000000000    0.0000000000000000 Mn
   0.2500002420762712    0.7500011194293622    0.5000008773530911 Mn
   0.7500011194293622    0.2500002420762711    0.5000008773530910 Be
