B20 H44
1.0
   6.7020192111705175    0.0000000000000000   -0.4935539457824787
   0.0000000000000000    8.2350086200762469    0.0000000000000000
  -0.0012104704159276    0.0000000000000000    9.9189557992636157
B H
20 44
direct
   0.2964261068385297    0.1074294389763637    0.3146381525293525 B
   0.3768584006254104    0.2796890512494248    0.8825664017327465 B
   0.1231417636621299    0.7796891350334132    0.6174344406019459 B
   0.6231417874150683    0.7203111163185556    0.1174344289320088 B
   0.3793389612991648    0.3352778620137290    0.7048772708355325 B
   0.1206612029883764    0.8352779457977177    0.7951235714991597 B
   0.6206612267413155    0.6647223055542512    0.2951235598292220 B
   0.8793389850521025    0.1647222217702608    0.2048772591655950 B
   0.5266765366576150    0.4513585639950040    0.8200206880703496 B
   0.8768584243783498    0.2203110325345650    0.3825663900628083 B
   0.4733236513828639    0.5486416035729750    0.1799801425944052 B
   0.9733237454031038    0.9513586477789939    0.6799805579267822 B
   0.7035740812019495    0.8925707285916160    0.6853626781354026 B
   0.7964262008587695    0.3925706448076263    0.8146385678617291 B
   0.1282367433656500    0.1089102387086353    0.1729885898236936 B
   0.2035739871817097    0.6074295227603529    0.1853622628030250 B
   0.3717633506545893    0.6089103224926243    0.3270118255086836 B
   0.8717634446748285    0.8910899288593446    0.8270122408410607 B
   0.6282368373858905    0.3910898450753540    0.6729890051560710 B
   0.0266764426373757    0.0486415197889855    0.3200202727379718 B
   0.2254507179610089    0.3233968617413013    0.9275389469781098 H
   0.5420042688968444    0.8389126448094163    0.0674875792375985 H
   0.9579959428965736    0.3389125610254267    0.4325132397572182 H
   0.2438515325568314    0.3890289258938152    0.6344530490814966 H
   0.2561486317307089    0.8890290096778047    0.8655477932531955 H
   0.7561486554836466    0.6109712416741642    0.3655477815832579 H
   0.7438515563097712    0.1109711578901745    0.1344530374115589 H
   0.4786532255449156    0.5888790097613775    0.8383677437859165 H
   0.0213469387426249    0.0888789259773873    0.6616330985487757 H
   0.5213469624955631    0.4111211578066025    0.1616330868788379 H
   0.9786532492978549    0.9111212415905914    0.3383677321159783 H
   0.0420042451439063    0.6610876065425525    0.5674875909075355 H
   0.5524505532197214    0.3690914744417929    0.9273980014622473 H
   0.3572039410672667    0.5164284650947797    0.4177655860521651 H
   0.9475497288409975    0.8690915582257827    0.5726032445348845 H
   0.4475496348207574    0.6309086931261862    0.0726028292025064 H
   0.0524504591994822    0.1309086093421964    0.4273975861298712 H
   0.3285468861969625    0.2020298583218597    0.7597271803979014 H
   0.1714532780905773    0.7020299421058493    0.7402736619367908 H
   0.6714533018435161    0.7979703092461194    0.2402736502668529 H
   0.8285469099499019    0.2979702254621298    0.2597271687279642 H
   0.5089357116178929    0.2645450497681850    0.6286342545447360 H
   0.9910645704428261    0.7645451335521752    0.8713669914523959 H
   0.4910644764225863    0.7354551177997937    0.3713665761200187 H
   0.0089356175976533    0.2354550340158045    0.1286338392123586 H
   0.7892326936858087    0.3044178213524507    0.6964560037641602 H
   0.7107675883749102    0.8044179051364398    0.8035452422329715 H
   0.8572040350875058    0.9835717862571891    0.9177660013845429 H
   0.2107674943546705    0.6955823462155291    0.3035448269005935 H
   0.2892325996655694    0.1955822624315389    0.1964555884317834 H
   0.2745494463265320    0.8233969455252914    0.5724618953565825 H
   0.7745494700794706    0.6766033058266775    0.0724618836866441 H
   0.7254507417139475    0.1766032220426881    0.4275389353081733 H
   0.4193124952558460    0.0037505511578348    0.3038659049583257 H
   0.0806875987643934    0.5037506349418245    0.1961345103740515 H
   0.5806876927846327   -0.0037505511578349    0.6961349257064292 H
   0.9193125892760863    0.4962495326261549    0.8038663202907026 H
   0.3347489930362968    0.2146882539690506    0.3938432806729102 H
   0.1652511009839428    0.7146883377530402    0.1061571346594671 H
   0.6652511950041833    0.7853119135989287    0.6061575499918446 H
   0.8347490870565358    0.2853118298149391    0.8938436960052871 H
   0.1427961529529732    0.0164283813107895    0.0822348292802123 H
   0.4579959191436343    0.1610875227585628    0.9325132514271567 H
   0.6427962469732134    0.4835717024731998    0.5822352446125890 H
